 C                                      
   1.00000000000000     
     2.4475419133795002    0.0000000000000000    0.0000000000000000
    -1.2237709566897497    2.1196334738138196    0.0000000000000000
     0.0000000000000000    0.0000000000000000    6.6507919269930778
   C 
     4
Direct
  0.0000000000000000  0.0000000000000000  0.0000000000000000
  0.3333333333333357  0.6666666666666643  0.0000000000000000
  0.3333333333333357  0.6666666666666643  0.5000000000000000
  0.6666666666666643  0.3333333333333357  0.5000000000000000
 
  0.00000000E+00  0.00000000E+00  0.00000000E+00
  0.00000000E+00  0.00000000E+00  0.00000000E+00
  0.00000000E+00  0.00000000E+00  0.00000000E+00
  0.00000000E+00  0.00000000E+00  0.00000000E+00
