begin projections
f=  0.000000,   0.000000,   0.000000 : s # n = 2, l = 1
f=  0.333333,   0.666667,   0.000000 : s # n = 2, l = 1
f=  0.333333,   0.666667,   0.500000 : s # n = 2, l = 1
f=  0.666667,   0.333333,   0.500000 : s # n = 2, l = 1
end projections

spinors = False
write_hr = True
write_xyz = True

num_bands       = 14
exclude_bands : 1,2

guiding_centres = True
num_wann        = 4
num_iter        = 200

#fermi_energy  = 6.117
dis_num_iter  = 10000
dis_mix_ratio = 0.5
dis_win_max = 18

bands_plot = true
bands_num_points = 100
bands_plot_format = gnuplot

begin kpoint_path
G 0.00000 0.00000 0.00000 K 0.33333 0.33333 0.00000
K 0.33333 0.33333 0.00000 M 0.00000 0.50000 0.00000
M 0.00000 0.50000 0.00000 G 0.00000 0.00000 0.00000
G 0.00000 0.00000 0.00000 A 0.00000 0.00000 0.50000
A 0.00000 0.00000 0.50000 H 0.33333 0.33333 0.50000
H 0.33333 0.33333 0.50000 L 0.00000 0.50000 0.50000
L 0.00000 0.50000 0.50000 A 0.00000 0.00000 0.50000
end kpoint_path

begin unit_cell_cart
  2.4475419134   0.0000000000  -0.0000000000
 -1.2237709567   2.1196334738   0.0000000000
  0.0000000000   0.0000000000   6.6507919270
end unit_cell_cart

begin atoms_frac
C  0.0000000000   0.0000000000   0.0000000000
C  0.3333333333   0.6666666667   0.0000000000
C  0.3333333333   0.6666666667   0.5000000000
C  0.6666666667   0.3333333333   0.5000000000
end atoms_frac

mp_grid = 15 15 3

begin kpoints
 -0.4666666667  -0.4666666667  -0.3333333333
 -0.4666666667  -0.4666666667   0.0000000000
 -0.4666666667  -0.4666666667   0.3333333333
 -0.4666666667  -0.4000000000  -0.3333333333
 -0.4666666667  -0.4000000000   0.0000000000
 -0.4666666667  -0.4000000000   0.3333333333
 -0.4666666667  -0.3333333333  -0.3333333333
 -0.4666666667  -0.3333333333   0.0000000000
 -0.4666666667  -0.3333333333   0.3333333333
 -0.4666666667  -0.2666666667  -0.3333333333
 -0.4666666667  -0.2666666667   0.0000000000
 -0.4666666667  -0.2666666667   0.3333333333
 -0.4666666667  -0.2000000000  -0.3333333333
 -0.4666666667  -0.2000000000   0.0000000000
 -0.4666666667  -0.2000000000   0.3333333333
 -0.4666666667  -0.1333333333  -0.3333333333
 -0.4666666667  -0.1333333333   0.0000000000
 -0.4666666667  -0.1333333333   0.3333333333
 -0.4666666667  -0.0666666667  -0.3333333333
 -0.4666666667  -0.0666666667   0.0000000000
 -0.4666666667  -0.0666666667   0.3333333333
 -0.4666666667   0.0000000000  -0.3333333333
 -0.4666666667   0.0000000000   0.0000000000
 -0.4666666667   0.0000000000   0.3333333333
 -0.4666666667   0.0666666667  -0.3333333333
 -0.4666666667   0.0666666667   0.0000000000
 -0.4666666667   0.0666666667   0.3333333333
 -0.4666666667   0.1333333333  -0.3333333333
 -0.4666666667   0.1333333333   0.0000000000
 -0.4666666667   0.1333333333   0.3333333333
 -0.4666666667   0.2000000000  -0.3333333333
 -0.4666666667   0.2000000000   0.0000000000
 -0.4666666667   0.2000000000   0.3333333333
 -0.4666666667   0.2666666667  -0.3333333333
 -0.4666666667   0.2666666667   0.0000000000
 -0.4666666667   0.2666666667   0.3333333333
 -0.4666666667   0.3333333333  -0.3333333333
 -0.4666666667   0.3333333333   0.0000000000
 -0.4666666667   0.3333333333   0.3333333333
 -0.4666666667   0.4000000000  -0.3333333333
 -0.4666666667   0.4000000000   0.0000000000
 -0.4666666667   0.4000000000   0.3333333333
 -0.4666666667   0.4666666667  -0.3333333333
 -0.4666666667   0.4666666667   0.0000000000
 -0.4666666667   0.4666666667   0.3333333333
 -0.4000000000  -0.4666666667  -0.3333333333
 -0.4000000000  -0.4666666667   0.0000000000
 -0.4000000000  -0.4666666667   0.3333333333
 -0.4000000000  -0.4000000000  -0.3333333333
 -0.4000000000  -0.4000000000   0.0000000000
 -0.4000000000  -0.4000000000   0.3333333333
 -0.4000000000  -0.3333333333  -0.3333333333
 -0.4000000000  -0.3333333333   0.0000000000
 -0.4000000000  -0.3333333333   0.3333333333
 -0.4000000000  -0.2666666667  -0.3333333333
 -0.4000000000  -0.2666666667   0.0000000000
 -0.4000000000  -0.2666666667   0.3333333333
 -0.4000000000  -0.2000000000  -0.3333333333
 -0.4000000000  -0.2000000000   0.0000000000
 -0.4000000000  -0.2000000000   0.3333333333
 -0.4000000000  -0.1333333333  -0.3333333333
 -0.4000000000  -0.1333333333   0.0000000000
 -0.4000000000  -0.1333333333   0.3333333333
 -0.4000000000  -0.0666666667  -0.3333333333
 -0.4000000000  -0.0666666667   0.0000000000
 -0.4000000000  -0.0666666667   0.3333333333
 -0.4000000000   0.0000000000  -0.3333333333
 -0.4000000000   0.0000000000   0.0000000000
 -0.4000000000   0.0000000000   0.3333333333
 -0.4000000000   0.0666666667  -0.3333333333
 -0.4000000000   0.0666666667   0.0000000000
 -0.4000000000   0.0666666667   0.3333333333
 -0.4000000000   0.1333333333  -0.3333333333
 -0.4000000000   0.1333333333   0.0000000000
 -0.4000000000   0.1333333333   0.3333333333
 -0.4000000000   0.2000000000  -0.3333333333
 -0.4000000000   0.2000000000   0.0000000000
 -0.4000000000   0.2000000000   0.3333333333
 -0.4000000000   0.2666666667  -0.3333333333
 -0.4000000000   0.2666666667   0.0000000000
 -0.4000000000   0.2666666667   0.3333333333
 -0.4000000000   0.3333333333  -0.3333333333
 -0.4000000000   0.3333333333   0.0000000000
 -0.4000000000   0.3333333333   0.3333333333
 -0.4000000000   0.4000000000  -0.3333333333
 -0.4000000000   0.4000000000   0.0000000000
 -0.4000000000   0.4000000000   0.3333333333
 -0.4000000000   0.4666666667  -0.3333333333
 -0.4000000000   0.4666666667   0.0000000000
 -0.4000000000   0.4666666667   0.3333333333
 -0.3333333333  -0.4666666667  -0.3333333333
 -0.3333333333  -0.4666666667   0.0000000000
 -0.3333333333  -0.4666666667   0.3333333333
 -0.3333333333  -0.4000000000  -0.3333333333
 -0.3333333333  -0.4000000000   0.0000000000
 -0.3333333333  -0.4000000000   0.3333333333
 -0.3333333333  -0.3333333333  -0.3333333333
 -0.3333333333  -0.3333333333   0.0000000000
 -0.3333333333  -0.3333333333   0.3333333333
 -0.3333333333  -0.2666666667  -0.3333333333
 -0.3333333333  -0.2666666667   0.0000000000
 -0.3333333333  -0.2666666667   0.3333333333
 -0.3333333333  -0.2000000000  -0.3333333333
 -0.3333333333  -0.2000000000   0.0000000000
 -0.3333333333  -0.2000000000   0.3333333333
 -0.3333333333  -0.1333333333  -0.3333333333
 -0.3333333333  -0.1333333333   0.0000000000
 -0.3333333333  -0.1333333333   0.3333333333
 -0.3333333333  -0.0666666667  -0.3333333333
 -0.3333333333  -0.0666666667   0.0000000000
 -0.3333333333  -0.0666666667   0.3333333333
 -0.3333333333   0.0000000000  -0.3333333333
 -0.3333333333   0.0000000000   0.0000000000
 -0.3333333333   0.0000000000   0.3333333333
 -0.3333333333   0.0666666667  -0.3333333333
 -0.3333333333   0.0666666667   0.0000000000
 -0.3333333333   0.0666666667   0.3333333333
 -0.3333333333   0.1333333333  -0.3333333333
 -0.3333333333   0.1333333333   0.0000000000
 -0.3333333333   0.1333333333   0.3333333333
 -0.3333333333   0.2000000000  -0.3333333333
 -0.3333333333   0.2000000000   0.0000000000
 -0.3333333333   0.2000000000   0.3333333333
 -0.3333333333   0.2666666667  -0.3333333333
 -0.3333333333   0.2666666667   0.0000000000
 -0.3333333333   0.2666666667   0.3333333333
 -0.3333333333   0.3333333333  -0.3333333333
 -0.3333333333   0.3333333333   0.0000000000
 -0.3333333333   0.3333333333   0.3333333333
 -0.3333333333   0.4000000000  -0.3333333333
 -0.3333333333   0.4000000000   0.0000000000
 -0.3333333333   0.4000000000   0.3333333333
 -0.3333333333   0.4666666667  -0.3333333333
 -0.3333333333   0.4666666667   0.0000000000
 -0.3333333333   0.4666666667   0.3333333333
 -0.2666666667  -0.4666666667  -0.3333333333
 -0.2666666667  -0.4666666667   0.0000000000
 -0.2666666667  -0.4666666667   0.3333333333
 -0.2666666667  -0.4000000000  -0.3333333333
 -0.2666666667  -0.4000000000   0.0000000000
 -0.2666666667  -0.4000000000   0.3333333333
 -0.2666666667  -0.3333333333  -0.3333333333
 -0.2666666667  -0.3333333333   0.0000000000
 -0.2666666667  -0.3333333333   0.3333333333
 -0.2666666667  -0.2666666667  -0.3333333333
 -0.2666666667  -0.2666666667   0.0000000000
 -0.2666666667  -0.2666666667   0.3333333333
 -0.2666666667  -0.2000000000  -0.3333333333
 -0.2666666667  -0.2000000000   0.0000000000
 -0.2666666667  -0.2000000000   0.3333333333
 -0.2666666667  -0.1333333333  -0.3333333333
 -0.2666666667  -0.1333333333   0.0000000000
 -0.2666666667  -0.1333333333   0.3333333333
 -0.2666666667  -0.0666666667  -0.3333333333
 -0.2666666667  -0.0666666667   0.0000000000
 -0.2666666667  -0.0666666667   0.3333333333
 -0.2666666667   0.0000000000  -0.3333333333
 -0.2666666667   0.0000000000   0.0000000000
 -0.2666666667   0.0000000000   0.3333333333
 -0.2666666667   0.0666666667  -0.3333333333
 -0.2666666667   0.0666666667   0.0000000000
 -0.2666666667   0.0666666667   0.3333333333
 -0.2666666667   0.1333333333  -0.3333333333
 -0.2666666667   0.1333333333   0.0000000000
 -0.2666666667   0.1333333333   0.3333333333
 -0.2666666667   0.2000000000  -0.3333333333
 -0.2666666667   0.2000000000   0.0000000000
 -0.2666666667   0.2000000000   0.3333333333
 -0.2666666667   0.2666666667  -0.3333333333
 -0.2666666667   0.2666666667   0.0000000000
 -0.2666666667   0.2666666667   0.3333333333
 -0.2666666667   0.3333333333  -0.3333333333
 -0.2666666667   0.3333333333   0.0000000000
 -0.2666666667   0.3333333333   0.3333333333
 -0.2666666667   0.4000000000  -0.3333333333
 -0.2666666667   0.4000000000   0.0000000000
 -0.2666666667   0.4000000000   0.3333333333
 -0.2666666667   0.4666666667  -0.3333333333
 -0.2666666667   0.4666666667   0.0000000000
 -0.2666666667   0.4666666667   0.3333333333
 -0.2000000000  -0.4666666667  -0.3333333333
 -0.2000000000  -0.4666666667   0.0000000000
 -0.2000000000  -0.4666666667   0.3333333333
 -0.2000000000  -0.4000000000  -0.3333333333
 -0.2000000000  -0.4000000000   0.0000000000
 -0.2000000000  -0.4000000000   0.3333333333
 -0.2000000000  -0.3333333333  -0.3333333333
 -0.2000000000  -0.3333333333   0.0000000000
 -0.2000000000  -0.3333333333   0.3333333333
 -0.2000000000  -0.2666666667  -0.3333333333
 -0.2000000000  -0.2666666667   0.0000000000
 -0.2000000000  -0.2666666667   0.3333333333
 -0.2000000000  -0.2000000000  -0.3333333333
 -0.2000000000  -0.2000000000   0.0000000000
 -0.2000000000  -0.2000000000   0.3333333333
 -0.2000000000  -0.1333333333  -0.3333333333
 -0.2000000000  -0.1333333333   0.0000000000
 -0.2000000000  -0.1333333333   0.3333333333
 -0.2000000000  -0.0666666667  -0.3333333333
 -0.2000000000  -0.0666666667   0.0000000000
 -0.2000000000  -0.0666666667   0.3333333333
 -0.2000000000   0.0000000000  -0.3333333333
 -0.2000000000   0.0000000000   0.0000000000
 -0.2000000000   0.0000000000   0.3333333333
 -0.2000000000   0.0666666667  -0.3333333333
 -0.2000000000   0.0666666667   0.0000000000
 -0.2000000000   0.0666666667   0.3333333333
 -0.2000000000   0.1333333333  -0.3333333333
 -0.2000000000   0.1333333333   0.0000000000
 -0.2000000000   0.1333333333   0.3333333333
 -0.2000000000   0.2000000000  -0.3333333333
 -0.2000000000   0.2000000000   0.0000000000
 -0.2000000000   0.2000000000   0.3333333333
 -0.2000000000   0.2666666667  -0.3333333333
 -0.2000000000   0.2666666667   0.0000000000
 -0.2000000000   0.2666666667   0.3333333333
 -0.2000000000   0.3333333333  -0.3333333333
 -0.2000000000   0.3333333333   0.0000000000
 -0.2000000000   0.3333333333   0.3333333333
 -0.2000000000   0.4000000000  -0.3333333333
 -0.2000000000   0.4000000000   0.0000000000
 -0.2000000000   0.4000000000   0.3333333333
 -0.2000000000   0.4666666667  -0.3333333333
 -0.2000000000   0.4666666667   0.0000000000
 -0.2000000000   0.4666666667   0.3333333333
 -0.1333333333  -0.4666666667  -0.3333333333
 -0.1333333333  -0.4666666667   0.0000000000
 -0.1333333333  -0.4666666667   0.3333333333
 -0.1333333333  -0.4000000000  -0.3333333333
 -0.1333333333  -0.4000000000   0.0000000000
 -0.1333333333  -0.4000000000   0.3333333333
 -0.1333333333  -0.3333333333  -0.3333333333
 -0.1333333333  -0.3333333333   0.0000000000
 -0.1333333333  -0.3333333333   0.3333333333
 -0.1333333333  -0.2666666667  -0.3333333333
 -0.1333333333  -0.2666666667   0.0000000000
 -0.1333333333  -0.2666666667   0.3333333333
 -0.1333333333  -0.2000000000  -0.3333333333
 -0.1333333333  -0.2000000000   0.0000000000
 -0.1333333333  -0.2000000000   0.3333333333
 -0.1333333333  -0.1333333333  -0.3333333333
 -0.1333333333  -0.1333333333   0.0000000000
 -0.1333333333  -0.1333333333   0.3333333333
 -0.1333333333  -0.0666666667  -0.3333333333
 -0.1333333333  -0.0666666667   0.0000000000
 -0.1333333333  -0.0666666667   0.3333333333
 -0.1333333333   0.0000000000  -0.3333333333
 -0.1333333333   0.0000000000   0.0000000000
 -0.1333333333   0.0000000000   0.3333333333
 -0.1333333333   0.0666666667  -0.3333333333
 -0.1333333333   0.0666666667   0.0000000000
 -0.1333333333   0.0666666667   0.3333333333
 -0.1333333333   0.1333333333  -0.3333333333
 -0.1333333333   0.1333333333   0.0000000000
 -0.1333333333   0.1333333333   0.3333333333
 -0.1333333333   0.2000000000  -0.3333333333
 -0.1333333333   0.2000000000   0.0000000000
 -0.1333333333   0.2000000000   0.3333333333
 -0.1333333333   0.2666666667  -0.3333333333
 -0.1333333333   0.2666666667   0.0000000000
 -0.1333333333   0.2666666667   0.3333333333
 -0.1333333333   0.3333333333  -0.3333333333
 -0.1333333333   0.3333333333   0.0000000000
 -0.1333333333   0.3333333333   0.3333333333
 -0.1333333333   0.4000000000  -0.3333333333
 -0.1333333333   0.4000000000   0.0000000000
 -0.1333333333   0.4000000000   0.3333333333
 -0.1333333333   0.4666666667  -0.3333333333
 -0.1333333333   0.4666666667   0.0000000000
 -0.1333333333   0.4666666667   0.3333333333
 -0.0666666667  -0.4666666667  -0.3333333333
 -0.0666666667  -0.4666666667   0.0000000000
 -0.0666666667  -0.4666666667   0.3333333333
 -0.0666666667  -0.4000000000  -0.3333333333
 -0.0666666667  -0.4000000000   0.0000000000
 -0.0666666667  -0.4000000000   0.3333333333
 -0.0666666667  -0.3333333333  -0.3333333333
 -0.0666666667  -0.3333333333   0.0000000000
 -0.0666666667  -0.3333333333   0.3333333333
 -0.0666666667  -0.2666666667  -0.3333333333
 -0.0666666667  -0.2666666667   0.0000000000
 -0.0666666667  -0.2666666667   0.3333333333
 -0.0666666667  -0.2000000000  -0.3333333333
 -0.0666666667  -0.2000000000   0.0000000000
 -0.0666666667  -0.2000000000   0.3333333333
 -0.0666666667  -0.1333333333  -0.3333333333
 -0.0666666667  -0.1333333333   0.0000000000
 -0.0666666667  -0.1333333333   0.3333333333
 -0.0666666667  -0.0666666667  -0.3333333333
 -0.0666666667  -0.0666666667   0.0000000000
 -0.0666666667  -0.0666666667   0.3333333333
 -0.0666666667   0.0000000000  -0.3333333333
 -0.0666666667   0.0000000000   0.0000000000
 -0.0666666667   0.0000000000   0.3333333333
 -0.0666666667   0.0666666667  -0.3333333333
 -0.0666666667   0.0666666667   0.0000000000
 -0.0666666667   0.0666666667   0.3333333333
 -0.0666666667   0.1333333333  -0.3333333333
 -0.0666666667   0.1333333333   0.0000000000
 -0.0666666667   0.1333333333   0.3333333333
 -0.0666666667   0.2000000000  -0.3333333333
 -0.0666666667   0.2000000000   0.0000000000
 -0.0666666667   0.2000000000   0.3333333333
 -0.0666666667   0.2666666667  -0.3333333333
 -0.0666666667   0.2666666667   0.0000000000
 -0.0666666667   0.2666666667   0.3333333333
 -0.0666666667   0.3333333333  -0.3333333333
 -0.0666666667   0.3333333333   0.0000000000
 -0.0666666667   0.3333333333   0.3333333333
 -0.0666666667   0.4000000000  -0.3333333333
 -0.0666666667   0.4000000000   0.0000000000
 -0.0666666667   0.4000000000   0.3333333333
 -0.0666666667   0.4666666667  -0.3333333333
 -0.0666666667   0.4666666667   0.0000000000
 -0.0666666667   0.4666666667   0.3333333333
  0.0000000000  -0.4666666667  -0.3333333333
  0.0000000000  -0.4666666667   0.0000000000
  0.0000000000  -0.4666666667   0.3333333333
  0.0000000000  -0.4000000000  -0.3333333333
  0.0000000000  -0.4000000000   0.0000000000
  0.0000000000  -0.4000000000   0.3333333333
  0.0000000000  -0.3333333333  -0.3333333333
  0.0000000000  -0.3333333333   0.0000000000
  0.0000000000  -0.3333333333   0.3333333333
  0.0000000000  -0.2666666667  -0.3333333333
  0.0000000000  -0.2666666667   0.0000000000
  0.0000000000  -0.2666666667   0.3333333333
  0.0000000000  -0.2000000000  -0.3333333333
  0.0000000000  -0.2000000000   0.0000000000
  0.0000000000  -0.2000000000   0.3333333333
  0.0000000000  -0.1333333333  -0.3333333333
  0.0000000000  -0.1333333333   0.0000000000
  0.0000000000  -0.1333333333   0.3333333333
  0.0000000000  -0.0666666667  -0.3333333333
  0.0000000000  -0.0666666667   0.0000000000
  0.0000000000  -0.0666666667   0.3333333333
  0.0000000000   0.0000000000  -0.3333333333
  0.0000000000   0.0000000000   0.0000000000
  0.0000000000   0.0000000000   0.3333333333
  0.0000000000   0.0666666667  -0.3333333333
  0.0000000000   0.0666666667   0.0000000000
  0.0000000000   0.0666666667   0.3333333333
  0.0000000000   0.1333333333  -0.3333333333
  0.0000000000   0.1333333333   0.0000000000
  0.0000000000   0.1333333333   0.3333333333
  0.0000000000   0.2000000000  -0.3333333333
  0.0000000000   0.2000000000   0.0000000000
  0.0000000000   0.2000000000   0.3333333333
  0.0000000000   0.2666666667  -0.3333333333
  0.0000000000   0.2666666667   0.0000000000
  0.0000000000   0.2666666667   0.3333333333
  0.0000000000   0.3333333333  -0.3333333333
  0.0000000000   0.3333333333   0.0000000000
  0.0000000000   0.3333333333   0.3333333333
  0.0000000000   0.4000000000  -0.3333333333
  0.0000000000   0.4000000000   0.0000000000
  0.0000000000   0.4000000000   0.3333333333
  0.0000000000   0.4666666667  -0.3333333333
  0.0000000000   0.4666666667   0.0000000000
  0.0000000000   0.4666666667   0.3333333333
  0.0666666667  -0.4666666667  -0.3333333333
  0.0666666667  -0.4666666667   0.0000000000
  0.0666666667  -0.4666666667   0.3333333333
  0.0666666667  -0.4000000000  -0.3333333333
  0.0666666667  -0.4000000000   0.0000000000
  0.0666666667  -0.4000000000   0.3333333333
  0.0666666667  -0.3333333333  -0.3333333333
  0.0666666667  -0.3333333333   0.0000000000
  0.0666666667  -0.3333333333   0.3333333333
  0.0666666667  -0.2666666667  -0.3333333333
  0.0666666667  -0.2666666667   0.0000000000
  0.0666666667  -0.2666666667   0.3333333333
  0.0666666667  -0.2000000000  -0.3333333333
  0.0666666667  -0.2000000000   0.0000000000
  0.0666666667  -0.2000000000   0.3333333333
  0.0666666667  -0.1333333333  -0.3333333333
  0.0666666667  -0.1333333333   0.0000000000
  0.0666666667  -0.1333333333   0.3333333333
  0.0666666667  -0.0666666667  -0.3333333333
  0.0666666667  -0.0666666667   0.0000000000
  0.0666666667  -0.0666666667   0.3333333333
  0.0666666667   0.0000000000  -0.3333333333
  0.0666666667   0.0000000000   0.0000000000
  0.0666666667   0.0000000000   0.3333333333
  0.0666666667   0.0666666667  -0.3333333333
  0.0666666667   0.0666666667   0.0000000000
  0.0666666667   0.0666666667   0.3333333333
  0.0666666667   0.1333333333  -0.3333333333
  0.0666666667   0.1333333333   0.0000000000
  0.0666666667   0.1333333333   0.3333333333
  0.0666666667   0.2000000000  -0.3333333333
  0.0666666667   0.2000000000   0.0000000000
  0.0666666667   0.2000000000   0.3333333333
  0.0666666667   0.2666666667  -0.3333333333
  0.0666666667   0.2666666667   0.0000000000
  0.0666666667   0.2666666667   0.3333333333
  0.0666666667   0.3333333333  -0.3333333333
  0.0666666667   0.3333333333   0.0000000000
  0.0666666667   0.3333333333   0.3333333333
  0.0666666667   0.4000000000  -0.3333333333
  0.0666666667   0.4000000000   0.0000000000
  0.0666666667   0.4000000000   0.3333333333
  0.0666666667   0.4666666667  -0.3333333333
  0.0666666667   0.4666666667   0.0000000000
  0.0666666667   0.4666666667   0.3333333333
  0.1333333333  -0.4666666667  -0.3333333333
  0.1333333333  -0.4666666667   0.0000000000
  0.1333333333  -0.4666666667   0.3333333333
  0.1333333333  -0.4000000000  -0.3333333333
  0.1333333333  -0.4000000000   0.0000000000
  0.1333333333  -0.4000000000   0.3333333333
  0.1333333333  -0.3333333333  -0.3333333333
  0.1333333333  -0.3333333333   0.0000000000
  0.1333333333  -0.3333333333   0.3333333333
  0.1333333333  -0.2666666667  -0.3333333333
  0.1333333333  -0.2666666667   0.0000000000
  0.1333333333  -0.2666666667   0.3333333333
  0.1333333333  -0.2000000000  -0.3333333333
  0.1333333333  -0.2000000000   0.0000000000
  0.1333333333  -0.2000000000   0.3333333333
  0.1333333333  -0.1333333333  -0.3333333333
  0.1333333333  -0.1333333333   0.0000000000
  0.1333333333  -0.1333333333   0.3333333333
  0.1333333333  -0.0666666667  -0.3333333333
  0.1333333333  -0.0666666667   0.0000000000
  0.1333333333  -0.0666666667   0.3333333333
  0.1333333333   0.0000000000  -0.3333333333
  0.1333333333   0.0000000000   0.0000000000
  0.1333333333   0.0000000000   0.3333333333
  0.1333333333   0.0666666667  -0.3333333333
  0.1333333333   0.0666666667   0.0000000000
  0.1333333333   0.0666666667   0.3333333333
  0.1333333333   0.1333333333  -0.3333333333
  0.1333333333   0.1333333333   0.0000000000
  0.1333333333   0.1333333333   0.3333333333
  0.1333333333   0.2000000000  -0.3333333333
  0.1333333333   0.2000000000   0.0000000000
  0.1333333333   0.2000000000   0.3333333333
  0.1333333333   0.2666666667  -0.3333333333
  0.1333333333   0.2666666667   0.0000000000
  0.1333333333   0.2666666667   0.3333333333
  0.1333333333   0.3333333333  -0.3333333333
  0.1333333333   0.3333333333   0.0000000000
  0.1333333333   0.3333333333   0.3333333333
  0.1333333333   0.4000000000  -0.3333333333
  0.1333333333   0.4000000000   0.0000000000
  0.1333333333   0.4000000000   0.3333333333
  0.1333333333   0.4666666667  -0.3333333333
  0.1333333333   0.4666666667   0.0000000000
  0.1333333333   0.4666666667   0.3333333333
  0.2000000000  -0.4666666667  -0.3333333333
  0.2000000000  -0.4666666667   0.0000000000
  0.2000000000  -0.4666666667   0.3333333333
  0.2000000000  -0.4000000000  -0.3333333333
  0.2000000000  -0.4000000000   0.0000000000
  0.2000000000  -0.4000000000   0.3333333333
  0.2000000000  -0.3333333333  -0.3333333333
  0.2000000000  -0.3333333333   0.0000000000
  0.2000000000  -0.3333333333   0.3333333333
  0.2000000000  -0.2666666667  -0.3333333333
  0.2000000000  -0.2666666667   0.0000000000
  0.2000000000  -0.2666666667   0.3333333333
  0.2000000000  -0.2000000000  -0.3333333333
  0.2000000000  -0.2000000000   0.0000000000
  0.2000000000  -0.2000000000   0.3333333333
  0.2000000000  -0.1333333333  -0.3333333333
  0.2000000000  -0.1333333333   0.0000000000
  0.2000000000  -0.1333333333   0.3333333333
  0.2000000000  -0.0666666667  -0.3333333333
  0.2000000000  -0.0666666667   0.0000000000
  0.2000000000  -0.0666666667   0.3333333333
  0.2000000000   0.0000000000  -0.3333333333
  0.2000000000   0.0000000000   0.0000000000
  0.2000000000   0.0000000000   0.3333333333
  0.2000000000   0.0666666667  -0.3333333333
  0.2000000000   0.0666666667   0.0000000000
  0.2000000000   0.0666666667   0.3333333333
  0.2000000000   0.1333333333  -0.3333333333
  0.2000000000   0.1333333333   0.0000000000
  0.2000000000   0.1333333333   0.3333333333
  0.2000000000   0.2000000000  -0.3333333333
  0.2000000000   0.2000000000   0.0000000000
  0.2000000000   0.2000000000   0.3333333333
  0.2000000000   0.2666666667  -0.3333333333
  0.2000000000   0.2666666667   0.0000000000
  0.2000000000   0.2666666667   0.3333333333
  0.2000000000   0.3333333333  -0.3333333333
  0.2000000000   0.3333333333   0.0000000000
  0.2000000000   0.3333333333   0.3333333333
  0.2000000000   0.4000000000  -0.3333333333
  0.2000000000   0.4000000000   0.0000000000
  0.2000000000   0.4000000000   0.3333333333
  0.2000000000   0.4666666667  -0.3333333333
  0.2000000000   0.4666666667   0.0000000000
  0.2000000000   0.4666666667   0.3333333333
  0.2666666667  -0.4666666667  -0.3333333333
  0.2666666667  -0.4666666667   0.0000000000
  0.2666666667  -0.4666666667   0.3333333333
  0.2666666667  -0.4000000000  -0.3333333333
  0.2666666667  -0.4000000000   0.0000000000
  0.2666666667  -0.4000000000   0.3333333333
  0.2666666667  -0.3333333333  -0.3333333333
  0.2666666667  -0.3333333333   0.0000000000
  0.2666666667  -0.3333333333   0.3333333333
  0.2666666667  -0.2666666667  -0.3333333333
  0.2666666667  -0.2666666667   0.0000000000
  0.2666666667  -0.2666666667   0.3333333333
  0.2666666667  -0.2000000000  -0.3333333333
  0.2666666667  -0.2000000000   0.0000000000
  0.2666666667  -0.2000000000   0.3333333333
  0.2666666667  -0.1333333333  -0.3333333333
  0.2666666667  -0.1333333333   0.0000000000
  0.2666666667  -0.1333333333   0.3333333333
  0.2666666667  -0.0666666667  -0.3333333333
  0.2666666667  -0.0666666667   0.0000000000
  0.2666666667  -0.0666666667   0.3333333333
  0.2666666667   0.0000000000  -0.3333333333
  0.2666666667   0.0000000000   0.0000000000
  0.2666666667   0.0000000000   0.3333333333
  0.2666666667   0.0666666667  -0.3333333333
  0.2666666667   0.0666666667   0.0000000000
  0.2666666667   0.0666666667   0.3333333333
  0.2666666667   0.1333333333  -0.3333333333
  0.2666666667   0.1333333333   0.0000000000
  0.2666666667   0.1333333333   0.3333333333
  0.2666666667   0.2000000000  -0.3333333333
  0.2666666667   0.2000000000   0.0000000000
  0.2666666667   0.2000000000   0.3333333333
  0.2666666667   0.2666666667  -0.3333333333
  0.2666666667   0.2666666667   0.0000000000
  0.2666666667   0.2666666667   0.3333333333
  0.2666666667   0.3333333333  -0.3333333333
  0.2666666667   0.3333333333   0.0000000000
  0.2666666667   0.3333333333   0.3333333333
  0.2666666667   0.4000000000  -0.3333333333
  0.2666666667   0.4000000000   0.0000000000
  0.2666666667   0.4000000000   0.3333333333
  0.2666666667   0.4666666667  -0.3333333333
  0.2666666667   0.4666666667   0.0000000000
  0.2666666667   0.4666666667   0.3333333333
  0.3333333333  -0.4666666667  -0.3333333333
  0.3333333333  -0.4666666667   0.0000000000
  0.3333333333  -0.4666666667   0.3333333333
  0.3333333333  -0.4000000000  -0.3333333333
  0.3333333333  -0.4000000000   0.0000000000
  0.3333333333  -0.4000000000   0.3333333333
  0.3333333333  -0.3333333333  -0.3333333333
  0.3333333333  -0.3333333333   0.0000000000
  0.3333333333  -0.3333333333   0.3333333333
  0.3333333333  -0.2666666667  -0.3333333333
  0.3333333333  -0.2666666667   0.0000000000
  0.3333333333  -0.2666666667   0.3333333333
  0.3333333333  -0.2000000000  -0.3333333333
  0.3333333333  -0.2000000000   0.0000000000
  0.3333333333  -0.2000000000   0.3333333333
  0.3333333333  -0.1333333333  -0.3333333333
  0.3333333333  -0.1333333333   0.0000000000
  0.3333333333  -0.1333333333   0.3333333333
  0.3333333333  -0.0666666667  -0.3333333333
  0.3333333333  -0.0666666667   0.0000000000
  0.3333333333  -0.0666666667   0.3333333333
  0.3333333333   0.0000000000  -0.3333333333
  0.3333333333   0.0000000000   0.0000000000
  0.3333333333   0.0000000000   0.3333333333
  0.3333333333   0.0666666667  -0.3333333333
  0.3333333333   0.0666666667   0.0000000000
  0.3333333333   0.0666666667   0.3333333333
  0.3333333333   0.1333333333  -0.3333333333
  0.3333333333   0.1333333333   0.0000000000
  0.3333333333   0.1333333333   0.3333333333
  0.3333333333   0.2000000000  -0.3333333333
  0.3333333333   0.2000000000   0.0000000000
  0.3333333333   0.2000000000   0.3333333333
  0.3333333333   0.2666666667  -0.3333333333
  0.3333333333   0.2666666667   0.0000000000
  0.3333333333   0.2666666667   0.3333333333
  0.3333333333   0.3333333333  -0.3333333333
  0.3333333333   0.3333333333   0.0000000000
  0.3333333333   0.3333333333   0.3333333333
  0.3333333333   0.4000000000  -0.3333333333
  0.3333333333   0.4000000000   0.0000000000
  0.3333333333   0.4000000000   0.3333333333
  0.3333333333   0.4666666667  -0.3333333333
  0.3333333333   0.4666666667   0.0000000000
  0.3333333333   0.4666666667   0.3333333333
  0.4000000000  -0.4666666667  -0.3333333333
  0.4000000000  -0.4666666667   0.0000000000
  0.4000000000  -0.4666666667   0.3333333333
  0.4000000000  -0.4000000000  -0.3333333333
  0.4000000000  -0.4000000000   0.0000000000
  0.4000000000  -0.4000000000   0.3333333333
  0.4000000000  -0.3333333333  -0.3333333333
  0.4000000000  -0.3333333333   0.0000000000
  0.4000000000  -0.3333333333   0.3333333333
  0.4000000000  -0.2666666667  -0.3333333333
  0.4000000000  -0.2666666667   0.0000000000
  0.4000000000  -0.2666666667   0.3333333333
  0.4000000000  -0.2000000000  -0.3333333333
  0.4000000000  -0.2000000000   0.0000000000
  0.4000000000  -0.2000000000   0.3333333333
  0.4000000000  -0.1333333333  -0.3333333333
  0.4000000000  -0.1333333333   0.0000000000
  0.4000000000  -0.1333333333   0.3333333333
  0.4000000000  -0.0666666667  -0.3333333333
  0.4000000000  -0.0666666667   0.0000000000
  0.4000000000  -0.0666666667   0.3333333333
  0.4000000000   0.0000000000  -0.3333333333
  0.4000000000   0.0000000000   0.0000000000
  0.4000000000   0.0000000000   0.3333333333
  0.4000000000   0.0666666667  -0.3333333333
  0.4000000000   0.0666666667   0.0000000000
  0.4000000000   0.0666666667   0.3333333333
  0.4000000000   0.1333333333  -0.3333333333
  0.4000000000   0.1333333333   0.0000000000
  0.4000000000   0.1333333333   0.3333333333
  0.4000000000   0.2000000000  -0.3333333333
  0.4000000000   0.2000000000   0.0000000000
  0.4000000000   0.2000000000   0.3333333333
  0.4000000000   0.2666666667  -0.3333333333
  0.4000000000   0.2666666667   0.0000000000
  0.4000000000   0.2666666667   0.3333333333
  0.4000000000   0.3333333333  -0.3333333333
  0.4000000000   0.3333333333   0.0000000000
  0.4000000000   0.3333333333   0.3333333333
  0.4000000000   0.4000000000  -0.3333333333
  0.4000000000   0.4000000000   0.0000000000
  0.4000000000   0.4000000000   0.3333333333
  0.4000000000   0.4666666667  -0.3333333333
  0.4000000000   0.4666666667   0.0000000000
  0.4000000000   0.4666666667   0.3333333333
  0.4666666667  -0.4666666667  -0.3333333333
  0.4666666667  -0.4666666667   0.0000000000
  0.4666666667  -0.4666666667   0.3333333333
  0.4666666667  -0.4000000000  -0.3333333333
  0.4666666667  -0.4000000000   0.0000000000