begin projections
f=  0.000000,   0.000000,   0.500000 : s # n = 2, l = 1
f=  0.666667,   0.333333,   0.500000 : s # n = 2, l = 1
end projections

spinors = False
write_hr = True
write_xyz = True

num_bands       = 15
exclude_bands : 1

guiding_centres = True
num_wann        = 2
num_iter        = 200

#fermi_energy  = -2.710
dis_num_iter  = 10000
dis_mix_ratio = 0.5
dis_win_max = 17

bands_plot = .true.
bands_num_points = 100
bands_plot_format = gnuplot

begin kpoint_path
G   0.00000   0.00000   0.00000   K   0.33333   0.33333   0.00000
K   0.33333   0.33333   0.00000   M   0.50000   0.00000   0.00000
M   0.50000   0.00000   0.00000   G   0.00000   0.00000   0.00000
end kpoint_path

begin unit_cell_cart
  2.4472604982   0.0000000000   0.0000000000
 -1.2236302491   2.1193897611   0.0000000000
  0.0000000000   0.0000000000  20.0000000000
end unit_cell_cart

begin atoms_frac
C  0.0000000000   0.0000000000   0.5000000000
C  0.6666666667   0.3333333333   0.5000000000
end atoms_frac

mp_grid = 24 24 1

begin kpoints
 -0.4791666667  -0.4791666667   0.0000000000
 -0.4791666667  -0.4375000000   0.0000000000
 -0.4791666667  -0.3958333333   0.0000000000
 -0.4791666667  -0.3541666667   0.0000000000
 -0.4791666667  -0.3125000000   0.0000000000
 -0.4791666667  -0.2708333333   0.0000000000
 -0.4791666667  -0.2291666667   0.0000000000
 -0.4791666667  -0.1875000000   0.0000000000
 -0.4791666667  -0.1458333333   0.0000000000
 -0.4791666667  -0.1041666667   0.0000000000
 -0.4791666667  -0.0625000000   0.0000000000
 -0.4791666667  -0.0208333333   0.0000000000
 -0.4791666667   0.0208333333   0.0000000000
 -0.4791666667   0.0625000000   0.0000000000
 -0.4791666667   0.1041666667   0.0000000000
 -0.4791666667   0.1458333333   0.0000000000
 -0.4791666667   0.1875000000   0.0000000000
 -0.4791666667   0.2291666667   0.0000000000
 -0.4791666667   0.2708333333   0.0000000000
 -0.4791666667   0.3125000000   0.0000000000
 -0.4791666667   0.3541666667   0.0000000000
 -0.4791666667   0.3958333333   0.0000000000
 -0.4791666667   0.4375000000   0.0000000000
 -0.4791666667   0.4791666667   0.0000000000
 -0.4375000000  -0.4791666667   0.0000000000
 -0.4375000000  -0.4375000000   0.0000000000
 -0.4375000000  -0.3958333333   0.0000000000
 -0.4375000000  -0.3541666667   0.0000000000
 -0.4375000000  -0.3125000000   0.0000000000
 -0.4375000000  -0.2708333333   0.0000000000
 -0.4375000000  -0.2291666667   0.0000000000
 -0.4375000000  -0.1875000000   0.0000000000
 -0.4375000000  -0.1458333333   0.0000000000
 -0.4375000000  -0.1041666667   0.0000000000
 -0.4375000000  -0.0625000000   0.0000000000
 -0.4375000000  -0.0208333333   0.0000000000
 -0.4375000000   0.0208333333   0.0000000000
 -0.4375000000   0.0625000000   0.0000000000
 -0.4375000000   0.1041666667   0.0000000000
 -0.4375000000   0.1458333333   0.0000000000
 -0.4375000000   0.1875000000   0.0000000000
 -0.4375000000   0.2291666667   0.0000000000
 -0.4375000000   0.2708333333   0.0000000000
 -0.4375000000   0.3125000000   0.0000000000
 -0.4375000000   0.3541666667   0.0000000000
 -0.4375000000   0.3958333333   0.0000000000
 -0.4375000000   0.4375000000   0.0000000000
 -0.4375000000   0.4791666667   0.0000000000
 -0.3958333333  -0.4791666667   0.0000000000
 -0.3958333333  -0.4375000000   0.0000000000
 -0.3958333333  -0.3958333333   0.0000000000
 -0.3958333333  -0.3541666667   0.0000000000
 -0.3958333333  -0.3125000000   0.0000000000
 -0.3958333333  -0.2708333333   0.0000000000
 -0.3958333333  -0.2291666667   0.0000000000
 -0.3958333333  -0.1875000000   0.0000000000
 -0.3958333333  -0.1458333333   0.0000000000
 -0.3958333333  -0.1041666667   0.0000000000
 -0.3958333333  -0.0625000000   0.0000000000
 -0.3958333333  -0.0208333333   0.0000000000
 -0.3958333333   0.0208333333   0.0000000000
 -0.3958333333   0.0625000000   0.0000000000
 -0.3958333333   0.1041666667   0.0000000000
 -0.3958333333   0.1458333333   0.0000000000
 -0.3958333333   0.1875000000   0.0000000000
 -0.3958333333   0.2291666667   0.0000000000
 -0.3958333333   0.2708333333   0.0000000000
 -0.3958333333   0.3125000000   0.0000000000
 -0.3958333333   0.3541666667   0.0000000000
 -0.3958333333   0.3958333333   0.0000000000
 -0.3958333333   0.4375000000   0.0000000000
 -0.3958333333   0.4791666667   0.0000000000
 -0.3541666667  -0.4791666667   0.0000000000
 -0.3541666667  -0.4375000000   0.0000000000
 -0.3541666667  -0.3958333333   0.0000000000
 -0.3541666667  -0.3541666667   0.0000000000
 -0.3541666667  -0.3125000000   0.0000000000
 -0.3541666667  -0.2708333333   0.0000000000
 -0.3541666667  -0.2291666667   0.0000000000
 -0.3541666667  -0.1875000000   0.0000000000
 -0.3541666667  -0.1458333333   0.0000000000
 -0.3541666667  -0.1041666667   0.0000000000
 -0.3541666667  -0.0625000000   0.0000000000
 -0.3541666667  -0.0208333333   0.0000000000
 -0.3541666667   0.0208333333   0.0000000000
 -0.3541666667   0.0625000000   0.0000000000
 -0.3541666667   0.1041666667   0.0000000000
 -0.3541666667   0.1458333333   0.0000000000
 -0.3541666667   0.1875000000   0.0000000000
 -0.3541666667   0.2291666667   0.0000000000
 -0.3541666667   0.2708333333   0.0000000000
 -0.3541666667   0.3125000000   0.0000000000
 -0.3541666667   0.3541666667   0.0000000000
 -0.3541666667   0.3958333333   0.0000000000
 -0.3541666667   0.4375000000   0.0000000000
 -0.3541666667   0.4791666667   0.0000000000
 -0.3125000000  -0.4791666667   0.0000000000
 -0.3125000000  -0.4375000000   0.0000000000
 -0.3125000000  -0.3958333333   0.0000000000
 -0.3125000000  -0.3541666667   0.0000000000
 -0.3125000000  -0.3125000000   0.0000000000
 -0.3125000000  -0.2708333333   0.0000000000
 -0.3125000000  -0.2291666667   0.0000000000
 -0.3125000000  -0.1875000000   0.0000000000
 -0.3125000000  -0.1458333333   0.0000000000
 -0.3125000000  -0.1041666667   0.0000000000
 -0.3125000000  -0.0625000000   0.0000000000
 -0.3125000000  -0.0208333333   0.0000000000
 -0.3125000000   0.0208333333   0.0000000000
 -0.3125000000   0.0625000000   0.0000000000
 -0.3125000000   0.1041666667   0.0000000000
 -0.3125000000   0.1458333333   0.0000000000
 -0.3125000000   0.1875000000   0.0000000000
 -0.3125000000   0.2291666667   0.0000000000
 -0.3125000000   0.2708333333   0.0000000000
 -0.3125000000   0.3125000000   0.0000000000
 -0.3125000000   0.3541666667   0.0000000000
 -0.3125000000   0.3958333333   0.0000000000
 -0.3125000000   0.4375000000   0.0000000000
 -0.3125000000   0.4791666667   0.0000000000
 -0.2708333333  -0.4791666667   0.0000000000
 -0.2708333333  -0.4375000000   0.0000000000
 -0.2708333333  -0.3958333333   0.0000000000
 -0.2708333333  -0.3541666667   0.0000000000
 -0.2708333333  -0.3125000000   0.0000000000
 -0.2708333333  -0.2708333333   0.0000000000
 -0.2708333333  -0.2291666667   0.0000000000
 -0.2708333333  -0.1875000000   0.0000000000
 -0.2708333333  -0.1458333333   0.0000000000
 -0.2708333333  -0.1041666667   0.0000000000
 -0.2708333333  -0.0625000000   0.0000000000
 -0.2708333333  -0.0208333333   0.0000000000
 -0.2708333333   0.0208333333   0.0000000000
 -0.2708333333   0.0625000000   0.0000000000
 -0.2708333333   0.1041666667   0.0000000000
 -0.2708333333   0.1458333333   0.0000000000
 -0.2708333333   0.1875000000   0.0000000000
 -0.2708333333   0.2291666667   0.0000000000
 -0.2708333333   0.2708333333   0.0000000000
 -0.2708333333   0.3125000000   0.0000000000
 -0.2708333333   0.3541666667   0.0000000000
 -0.2708333333   0.3958333333   0.0000000000
 -0.2708333333   0.4375000000   0.0000000000
 -0.2708333333   0.4791666667   0.0000000000
 -0.2291666667  -0.4791666667   0.0000000000
 -0.2291666667  -0.4375000000   0.0000000000
 -0.2291666667  -0.3958333333   0.0000000000
 -0.2291666667  -0.3541666667   0.0000000000
 -0.2291666667  -0.3125000000   0.0000000000
 -0.2291666667  -0.2708333333   0.0000000000
 -0.2291666667  -0.2291666667   0.0000000000
 -0.2291666667  -0.1875000000   0.0000000000
 -0.2291666667  -0.1458333333   0.0000000000
 -0.2291666667  -0.1041666667   0.0000000000
 -0.2291666667  -0.0625000000   0.0000000000
 -0.2291666667  -0.0208333333   0.0000000000
 -0.2291666667   0.0208333333   0.0000000000
 -0.2291666667   0.0625000000   0.0000000000
 -0.2291666667   0.1041666667   0.0000000000
 -0.2291666667   0.1458333333   0.0000000000
 -0.2291666667   0.1875000000   0.0000000000
 -0.2291666667   0.2291666667   0.0000000000
 -0.2291666667   0.2708333333   0.0000000000
 -0.2291666667   0.3125000000   0.0000000000
 -0.2291666667   0.3541666667   0.0000000000
 -0.2291666667   0.3958333333   0.0000000000
 -0.2291666667   0.4375000000   0.0000000000
 -0.2291666667   0.4791666667   0.0000000000
 -0.1875000000  -0.4791666667   0.0000000000
 -0.1875000000  -0.4375000000   0.0000000000
 -0.1875000000  -0.3958333333   0.0000000000
 -0.1875000000  -0.3541666667   0.0000000000
 -0.1875000000  -0.3125000000   0.0000000000
 -0.1875000000  -0.2708333333   0.0000000000
 -0.1875000000  -0.2291666667   0.0000000000
 -0.1875000000  -0.1875000000   0.0000000000
 -0.1875000000  -0.1458333333   0.0000000000
 -0.1875000000  -0.1041666667   0.0000000000
 -0.1875000000  -0.0625000000   0.0000000000
 -0.1875000000  -0.0208333333   0.0000000000
 -0.1875000000   0.0208333333   0.0000000000
 -0.1875000000   0.0625000000   0.0000000000
 -0.1875000000   0.1041666667   0.0000000000
 -0.1875000000   0.1458333333   0.0000000000
 -0.1875000000   0.1875000000   0.0000000000
 -0.1875000000   0.2291666667   0.0000000000
 -0.1875000000   0.2708333333   0.0000000000
 -0.1875000000   0.3125000000   0.0000000000
 -0.1875000000   0.3541666667   0.0000000000
 -0.1875000000   0.3958333333   0.0000000000
 -0.1875000000   0.4375000000   0.0000000000
 -0.1875000000   0.4791666667   0.0000000000
 -0.1458333333  -0.4791666667   0.0000000000
 -0.1458333333  -0.4375000000   0.0000000000
 -0.1458333333  -0.3958333333   0.0000000000
 -0.1458333333  -0.3541666667   0.0000000000
 -0.1458333333  -0.3125000000   0.0000000000
 -0.1458333333  -0.2708333333   0.0000000000
 -0.1458333333  -0.2291666667   0.0000000000
 -0.1458333333  -0.1875000000   0.0000000000
 -0.1458333333  -0.1458333333   0.0000000000
 -0.1458333333  -0.1041666667   0.0000000000
 -0.1458333333  -0.0625000000   0.0000000000
 -0.1458333333  -0.0208333333   0.0000000000
 -0.1458333333   0.0208333333   0.0000000000
 -0.1458333333   0.0625000000   0.0000000000
 -0.1458333333   0.1041666667   0.0000000000
 -0.1458333333   0.1458333333   0.0000000000
 -0.1458333333   0.1875000000   0.0000000000
 -0.1458333333   0.2291666667   0.0000000000
 -0.1458333333   0.2708333333   0.0000000000
 -0.1458333333   0.3125000000   0.0000000000
 -0.1458333333   0.3541666667   0.0000000000
 -0.1458333333   0.3958333333   0.0000000000
 -0.1458333333   0.4375000000   0.0000000000
 -0.1458333333   0.4791666667   0.0000000000
 -0.1041666667  -0.4791666667   0.0000000000
 -0.1041666667  -0.4375000000   0.0000000000
 -0.1041666667  -0.3958333333   0.0000000000
 -0.1041666667  -0.3541666667   0.0000000000
 -0.1041666667  -0.3125000000   0.0000000000
 -0.1041666667  -0.2708333333   0.0000000000
 -0.1041666667  -0.2291666667   0.0000000000
 -0.1041666667  -0.1875000000   0.0000000000
 -0.1041666667  -0.1458333333   0.0000000000
 -0.1041666667  -0.1041666667   0.0000000000
 -0.1041666667  -0.0625000000   0.0000000000
 -0.1041666667  -0.0208333333   0.0000000000
 -0.1041666667   0.0208333333   0.0000000000
 -0.1041666667   0.0625000000   0.0000000000
 -0.1041666667   0.1041666667   0.0000000000
 -0.1041666667   0.1458333333   0.0000000000
 -0.1041666667   0.1875000000   0.0000000000
 -0.1041666667   0.2291666667   0.0000000000
 -0.1041666667   0.2708333333   0.0000000000
 -0.1041666667   0.3125000000   0.0000000000
 -0.1041666667   0.3541666667   0.0000000000
 -0.1041666667   0.3958333333   0.0000000000
 -0.1041666667   0.4375000000   0.0000000000
 -0.1041666667   0.4791666667   0.0000000000
 -0.0625000000  -0.4791666667   0.0000000000
 -0.0625000000  -0.4375000000   0.0000000000
 -0.0625000000  -0.3958333333   0.0000000000
 -0.0625000000  -0.3541666667   0.0000000000
 -0.0625000000  -0.3125000000   0.0000000000
 -0.0625000000  -0.2708333333   0.0000000000
 -0.0625000000  -0.2291666667   0.0000000000
 -0.0625000000  -0.1875000000   0.0000000000
 -0.0625000000  -0.1458333333   0.0000000000
 -0.0625000000  -0.1041666667   0.0000000000
 -0.0625000000  -0.0625000000   0.0000000000
 -0.0625000000  -0.0208333333   0.0000000000
 -0.0625000000   0.0208333333   0.0000000000
 -0.0625000000   0.0625000000   0.0000000000
 -0.0625000000   0.1041666667   0.0000000000
 -0.0625000000   0.1458333333   0.0000000000
 -0.0625000000   0.1875000000   0.0000000000
 -0.0625000000   0.2291666667   0.0000000000
 -0.0625000000   0.2708333333   0.0000000000
 -0.0625000000   0.3125000000   0.0000000000
 -0.0625000000   0.3541666667   0.0000000000
 -0.0625000000   0.3958333333   0.0000000000
 -0.0625000000   0.4375000000   0.0000000000
 -0.0625000000   0.4791666667   0.0000000000
 -0.0208333333  -0.4791666667   0.0000000000
 -0.0208333333  -0.4375000000   0.0000000000
 -0.0208333333  -0.3958333333   0.0000000000
 -0.0208333333  -0.3541666667   0.0000000000
 -0.0208333333  -0.3125000000   0.0000000000
 -0.0208333333  -0.2708333333   0.0000000000
 -0.0208333333  -0.2291666667   0.0000000000
 -0.0208333333  -0.1875000000   0.0000000000
 -0.0208333333  -0.1458333333   0.0000000000
 -0.0208333333  -0.1041666667   0.0000000000
 -0.0208333333  -0.0625000000   0.0000000000
 -0.0208333333  -0.0208333333   0.0000000000
 -0.0208333333   0.0208333333   0.0000000000
 -0.0208333333   0.0625000000   0.0000000000
 -0.0208333333   0.1041666667   0.0000000000
 -0.0208333333   0.1458333333   0.0000000000
 -0.0208333333   0.1875000000   0.0000000000
 -0.0208333333   0.2291666667   0.0000000000
 -0.0208333333   0.2708333333   0.0000000000
 -0.0208333333   0.3125000000   0.0000000000
 -0.0208333333   0.3541666667   0.0000000000
 -0.0208333333   0.3958333333   0.0000000000
 -0.0208333333   0.4375000000   0.0000000000
 -0.0208333333   0.4791666667   0.0000000000
  0.0208333333  -0.4791666667   0.0000000000
  0.0208333333  -0.4375000000   0.0000000000
  0.0208333333  -0.3958333333   0.0000000000
  0.0208333333  -0.3541666667   0.0000000000
  0.0208333333  -0.3125000000   0.0000000000
  0.0208333333  -0.2708333333   0.0000000000
  0.0208333333  -0.2291666667   0.0000000000
  0.0208333333  -0.1875000000   0.0000000000
  0.0208333333  -0.1458333333   0.0000000000
  0.0208333333  -0.1041666667   0.0000000000
  0.0208333333  -0.0625000000   0.0000000000
  0.0208333333  -0.0208333333   0.0000000000
  0.0208333333   0.0208333333   0.0000000000
  0.0208333333   0.0625000000   0.0000000000
  0.0208333333   0.1041666667   0.0000000000
  0.0208333333   0.1458333333   0.0000000000
  0.0208333333   0.1875000000   0.0000000000
  0.0208333333   0.2291666667   0.0000000000
  0.0208333333   0.2708333333   0.0000000000
  0.0208333333   0.3125000000   0.0000000000
  0.0208333333   0.3541666667   0.0000000000
  0.0208333333   0.3958333333   0.0000000000
  0.0208333333   0.4375000000   0.0000000000
  0.0208333333   0.4791666667   0.0000000000
  0.0625000000  -0.4791666667   0.0000000000
  0.0625000000  -0.4375000000   0.0000000000
  0.0625000000  -0.3958333333   0.0000000000
  0.0625000000  -0.3541666667   0.0000000000
  0.0625000000  -0.3125000000   0.0000000000
  0.0625000000  -0.2708333333   0.0000000000
  0.0625000000  -0.2291666667   0.0000000000
  0.0625000000  -0.1875000000   0.0000000000
  0.0625000000  -0.1458333333   0.0000000000
  0.0625000000  -0.1041666667   0.0000000000
  0.0625000000  -0.0625000000   0.0000000000
  0.0625000000  -0.0208333333   0.0000000000
  0.0625000000   0.0208333333   0.0000000000
  0.0625000000   0.0625000000   0.0000000000
  0.0625000000   0.1041666667   0.0000000000
  0.0625000000   0.1458333333   0.0000000000
  0.0625000000   0.1875000000   0.0000000000
  0.0625000000   0.2291666667   0.0000000000
  0.0625000000   0.2708333333   0.0000000000
  0.0625000000   0.3125000000   0.0000000000
  0.0625000000   0.3541666667   0.0000000000
  0.0625000000   0.3958333333   0.0000000000
  0.0625000000   0.4375000000   0.0000000000
  0.0625000000   0.4791666667   0.0000000000
  0.1041666667  -0.4791666667   0.0000000000
  0.1041666667  -0.4375000000   0.0000000000
  0.1041666667  -0.3958333333   0.0000000000
  0.1041666667  -0.3541666667   0.0000000000
  0.1041666667  -0.3125000000   0.0000000000
  0.1041666667  -0.2708333333   0.0000000000
  0.1041666667  -0.2291666667   0.0000000000
  0.1041666667  -0.1875000000   0.0000000000
  0.1041666667  -0.1458333333   0.0000000000
  0.1041666667  -0.1041666667   0.0000000000
  0.1041666667  -0.0625000000   0.0000000000
  0.1041666667  -0.0208333333   0.0000000000
  0.1041666667   0.0208333333   0.0000000000
  0.1041666667   0.0625000000   0.0000000000
  0.1041666667   0.1041666667   0.0000000000
  0.1041666667   0.1458333333   0.0000000000
  0.1041666667   0.1875000000   0.0000000000
  0.1041666667   0.2291666667   0.0000000000
  0.1041666667   0.2708333333   0.0000000000
  0.1041666667   0.3125000000   0.0000000000
  0.1041666667   0.3541666667   0.0000000000
  0.1041666667   0.3958333333   0.0000000000
  0.1041666667   0.4375000000   0.0000000000
  0.1041666667   0.4791666667   0.0000000000
  0.1458333333  -0.4791666667   0.0000000000
  0.1458333333  -0.4375000000   0.0000000000
  0.1458333333  -0.3958333333   0.0000000000
  0.1458333333  -0.3541666667   0.0000000000
  0.1458333333  -0.3125000000   0.0000000000
  0.1458333333  -0.2708333333   0.0000000000
  0.1458333333  -0.2291666667   0.0000000000
  0.1458333333  -0.1875000000   0.0000000000
  0.1458333333  -0.1458333333   0.0000000000
  0.1458333333  -0.1041666667   0.0000000000
  0.1458333333  -0.0625000000   0.0000000000
  0.1458333333  -0.0208333333   0.0000000000
  0.1458333333   0.0208333333   0.0000000000
  0.1458333333   0.0625000000   0.0000000000
  0.1458333333   0.1041666667   0.0000000000
  0.1458333333   0.1458333333   0.0000000000
  0.1458333333   0.1875000000   0.0000000000
  0.1458333333   0.2291666667   0.0000000000
  0.1458333333   0.2708333333   0.0000000000
  0.1458333333   0.3125000000   0.0000000000
  0.1458333333   0.3541666667   0.0000000000
  0.1458333333   0.3958333333   0.0000000000
  0.1458333333   0.4375000000   0.0000000000
  0.1458333333   0.4791666667   0.0000000000
  0.1875000000  -0.4791666667   0.0000000000
  0.1875000000  -0.4375000000   0.0000000000
  0.1875000000  -0.3958333333   0.0000000000
  0.1875000000  -0.3541666667   0.0000000000
  0.1875000000  -0.3125000000   0.0000000000
  0.1875000000  -0.2708333333   0.0000000000
  0.1875000000  -0.2291666667   0.0000000000
  0.1875000000  -0.1875000000   0.0000000000
  0.1875000000  -0.1458333333   0.0000000000
  0.1875000000  -0.1041666667   0.0000000000
  0.1875000000  -0.0625000000   0.0000000000
  0.1875000000  -0.0208333333   0.0000000000
  0.1875000000   0.0208333333   0.0000000000
  0.1875000000   0.0625000000   0.0000000000
  0.1875000000   0.1041666667   0.0000000000
  0.1875000000   0.1458333333   0.0000000000
  0.1875000000   0.1875000000   0.0000000000
  0.1875000000   0.2291666667   0.0000000000
  0.1875000000   0.2708333333   0.0000000000
  0.1875000000   0.3125000000   0.0000000000
  0.1875000000   0.3541666667   0.0000000000
  0.1875000000   0.3958333333   0.0000000000
  0.1875000000   0.4375000000   0.0000000000
  0.1875000000   0.4791666667   0.0000000000
  0.2291666667  -0.4791666667   0.0000000000
  0.2291666667  -0.4375000000   0.0000000000
  0.2291666667  -0.3958333333   0.0000000000
  0.2291666667  -0.3541666667   0.0000000000
  0.2291666667  -0.3125000000   0.0000000000
  0.2291666667  -0.2708333333   0.0000000000
  0.2291666667  -0.2291666667   0.0000000000
  0.2291666667  -0.1875000000   0.0000000000
  0.2291666667  -0.1458333333   0.0000000000
  0.2291666667  -0.1041666667   0.0000000000
  0.2291666667  -0.0625000000   0.0000000000
  0.2291666667  -0.0208333333   0.0000000000
  0.2291666667   0.0208333333   0.0000000000
  0.2291666667   0.0625000000   0.0000000000
  0.2291666667   0.1041666667   0.0000000000
  0.2291666667   0.1458333333   0.0000000000
  0.2291666667   0.1875000000   0.0000000000
  0.2291666667   0.2291666667   0.0000000000
  0.2291666667   0.2708333333   0.0000000000
  0.2291666667   0.3125000000   0.0000000000
  0.2291666667   0.3541666667   0.0000000000
  0.2291666667   0.3958333333   0.0000000000
  0.2291666667   0.4375000000   0.0000000000
  0.2291666667   0.4791666667   0.0000000000
  0.2708333333  -0.4791666667   0.0000000000
  0.2708333333  -0.4375000000   0.0000000000
  0.2708333333  -0.3958333333   0.0000000000
  0.2708333333  -0.3541666667   0.0000000000
  0.2708333333  -0.3125000000   0.0000000000
  0.2708333333  -0.2708333333   0.0000000000
  0.2708333333  -0.2291666667   0.0000000000
  0.2708333333  -0.1875000000   0.0000000000
  0.2708333333  -0.1458333333   0.0000000000
  0.2708333333  -0.1041666667   0.0000000000
  0.2708333333  -0.0625000000   0.0000000000
  0.2708333333  -0.0208333333   0.0000000000
  0.2708333333   0.0208333333   0.0000000000
  0.2708333333   0.0625000000   0.0000000000
  0.2708333333   0.1041666667   0.0000000000
  0.2708333333   0.1458333333   0.0000000000
  0.2708333333   0.1875000000   0.0000000000
  0.2708333333   0.2291666667   0.0000000000
  0.2708333333   0.2708333333   0.0000000000
  0.2708333333   0.3125000000   0.0000000000
  0.2708333333   0.3541666667   0.0000000000
  0.2708333333   0.3958333333   0.0000000000
  0.2708333333   0.4375000000   0.0000000000
  0.2708333333   0.4791666667   0.0000000000
  0.3125000000  -0.4791666667   0.0000000000
  0.3125000000  -0.4375000000   0.0000000000
  0.3125000000  -0.3958333333   0.0000000000
  0.3125000000  -0.3541666667   0.0000000000
  0.3125000000  -0.3125000000   0.0000000000
  0.3125000000  -0.2708333333   0.0000000000
  0.3125000000  -0.2291666667   0.0000000000
  0.3125000000  -0.1875000000   0.0000000000
  0.3125000000  -0.1458333333   0.0000000000
  0.3125000000  -0.1041666667   0.0000000000
  0.3125000000  -0.0625000000   0.0000000000
  0.3125000000  -0.0208333333   0.0000000000
  0.3125000000   0.0208333333   0.0000000000
  0.3125000000   0.0625000000   0.0000000000
  0.3125000000   0.1041666667   0.0000000000
  0.3125000000   0.1458333333   0.0000000000
  0.3125000000   0.1875000000   0.0000000000
  0.3125000000   0.2291666667   0.0000000000
  0.3125000000   0.2708333333   0.0000000000
  0.3125000000   0.3125000000   0.0000000000
  0.3125000000   0.3541666667   0.0000000000
  0.3125000000   0.3958333333   0.0000000000
  0.3125000000   0.4375000000   0.0000000000
  0.3125000000   0.4791666667   0.0000000000
  0.3541666667  -0.4791666667   0.0000000000
  0.3541666667  -0.4375000000   0.0000000000
  0.3541666667  -0.3958333333   0.0000000000
  0.3541666667  -0.3541666667   0.0000000000
  0.3541666667  -0.3125000000   0.0000000000
  0.3541666667  -0.2708333333   0.0000000000
  0.3541666667  -0.2291666667   0.0000000000
  0.3541666667  -0.1875000000   0.0000000000
  0.3541666667  -0.1458333333   0.0000000000
  0.3541666667  -0.1041666667   0.0000000000
  0.3541666667  -0.0625000000   0.0000000000
  0.3541666667  -0.0208333333   0.0000000000
  0.3541666667   0.0208333333   0.0000000000
  0.3541666667   0.0625000000   0.0000000000
  0.3541666667   0.1041666667   0.0000000000
  0.3541666667   0.1458333333   0.0000000000
  0.3541666667   0.1875000000   0.0000000000
  0.3541666667   0.2291666667   0.0000000000
  0.3541666667   0.2708333333   0.0000000000
  0.3541666667   0.3125000000   0.0000000000
  0.3541666667   0.3541666667   0.0000000000
  0.3541666667   0.3958333333   0.0000000000
  0.3541666667   0.4375000000   0.0000000000
  0.3541666667   0.4791666667   0.0000000000
  0.3958333333  -0.4791666667   0.0000000000
  0.3958333333  -0.4375000000   0.0000000000
  0.3958333333  -0.3958333333   0.0000000000
  0.3958333333  -0.3541666667   0.0000000000
  0.3958333333  -0.3125000000   0.0000000000
  0.3958333333  -0.2708333333   0.0000000000
  0.3958333333  -0.2291666667   0.0000000000
  0.3958333333  -0.1875000000   0.0000000000
  0.3958333333  -0.1458333333   0.0000000000
  0.3958333333  -0.1041666667   0.0000000000
  0.3958333333  -0.0625000000   0.0000000000
  0.3958333333  -0.0208333333   0.0000000000
  0.3958333333   0.0208333333   0.0000000000
  0.3958333333   0.0625000000   0.0000000000
  0.3958333333   0.1041666667   0.0000000000
  0.3958333333   0.1458333333   0.0000000000
  0.3958333333   0.1875000000   0.0000000000
  0.3958333333   0.2291666667   0.0000000000
  0.3958333333   0.2708333333   0.0000000000
  0.3958333333   0.3125000000   0.0000000000
  0.3958333333   0.3541666667   0.0000000000
  0.3958333333   0.3958333333   0.0000000000
  0.3958333333   0.4375000000   0.0000000000
  0.3958333333   0.4791666667   0.0000000000
  0.4375000000  -0.4791666667   0.0000000000
  0.4375000000  -0.4375000000   0.0000000000
  0.4375000000  -0.3958333333   0.0000000000
  0.4375000000  -0.3541666667   0.0000000000
  0.4375000000  -0.3125000000   0.0000000000
  0.4375000000  -0.2708333333   0.0000000000
  0.4375000000  -0.2291666667   0.0000000000
  0.4375000000  -0.1875000000   0.0000000000
  0.4375000000  -0.1458333333   0.0000000000
  0.4375000000  -0.1041666667   0.0000000000
  0.4375000000  -0.0625000000   0.0000000000
  0.4375000000  -0.0208333333   0.0000000000
  0.4375000000   0.0208333333   0.0000000000
  0.4375000000   0.0625000000   0.0000000000
  0.4375000000   0.1041666667   0.0000000000
  0.4375000000   0.1458333333   0.0000000000
  0.4375000000   0.1875000000   0.0000000000
  0.4375000000   0.2291666667   0.0000000000
  0.4375000000   0.2708333333   0.0000000000
  0.4375000000   0.3125000000   0.0000000000
  0.4375000000   0.3541666667   0.0000000000
  0.4375000000   0.3958333333   0.0000000000
  0.4375000000   0.4375000000   0.0000000000
  0.4375000000   0.4791666667   0.0000000000
  0.4791666667  -0.4791666667   0.0000000000
  0.4791666667  -0.4375000000   0.0000000000
  0.4791666667  -0.3958333333   0.0000000000
  0.4791666667  -0.3541666667   0.0000000000
  0.4791666667  -0.3125000000   0.0000000000
  0.4791666667  -0.2708333333   0.0000000000
  0.4791666667  -0.2291666667   0.0000000000
  0.4791666667  -0.1875000000   0.0000000000
  0.4791666667  -0.1458333333   0.0000000000
  0.4791666667  -0.1041666667   0.0000000000
  0.4791666667  -0.0625000000   0.0000000000
  0.4791666667  -0.0208333333   0.0000000000
  0.4791666667   0.0208333333   0.0000000000
  0.4791666667   0.0625000000   0.0000000000
  0.4791666667   0.1041666667   0.0000000000
  0.4791666667   0.1458333333   0.0000000000
  0.4791666667   0.1875000000   0.0000000000
  0.4791666667   0.2291666667   0.0000000000
  0.4791666667   0.2708333333   0.0000000000
  0.4791666667   0.3125000000   0.0000000000
  0.4791666667   0.3541666667   0.0000000000
  0.4791666667   0.3958333333   0.0000000000
  0.4791666667   0.4375000000   0.0000000000
  0.4791666667   0.4791666667   0.0000000000
end kpoints
