 C 
 1.0000000000000000
     2.4475419133795002    0.0000000000000000   -0.0000000000000000
    -1.2237709566897497    2.1196334738138196    0.0000000000000000
     0.0000000000000000    0.0000000000000000    6.6507919269930778
 C  
   4
Cartesian
  0.0000000000000000  0.0000000000000000  0.0000000000000000
  0.0000000000000090  1.4130889825425414  0.0000000000000000
  0.0000000000000090  1.4130889825425414  3.3253959634965389
  1.2237709566897417  0.7065444912712783  3.3253959634965389
