num_bands	=	14
exclude_bands : 1-2
num_wann	=	4
num_iter	=	200
dis_num_iter	=	10000
kmesh_tol	=	0.0001

dis_win_max	=	19
begin projections
C:pz
end projections

write_xyz = .true.
bands_plot = .true.
bands_num_points = 100
bands_plot_format = gnuplot

begin kpoint_path
G   0.00000   0.00000   0.00000   K   0.33333   0.33333   0.00000
K   0.33333   0.33333   0.00000   M   0.50000   0.00000   0.00000
M   0.50000   0.00000   0.00000   G   0.00000   0.00000   0.00000
G   0.00000   0.00000   0.00000   A   0.00000   0.00000   0.50000
A   0.00000   0.00000   0.50000   H   0.33333   0.33333   0.50000
H   0.33333   0.33333   0.50000   L   0.50000   0.00000   0.50000
L   0.50000   0.00000   0.50000   A   0.00000   0.00000   0.50000
end kpoint_path

write_hr = .true.
write_tb = .true.
write_hr_diag = .true.

begin atoms_cart
C	  0.00000000	  0.00000000	  0.00000000	
C	  0.00000000	  1.41308908	  0.00000000	
C	  0.00000000	  1.41308908	  3.32539596	
C	  1.22377098	  0.70654442	  3.32539596	
end atoms_cart

begin unit_cell_cart
  2.44754196	  0.00000000	  0.00000000	
 -1.22377098	  2.11963252	  0.00000000	
  0.00000000	  0.00000000	  6.65079142	
end unit_cell_cart

mp_grid:  15  15  3

begin kpoints
  0.00000000  0.00000000  0.00000000
  0.00000000  0.00000000  0.33333333
  0.00000000  0.00000000  0.66666667
  0.00000000  0.06666667  0.00000000
  0.00000000  0.06666667  0.33333333
  0.00000000  0.06666667  0.66666667
  0.00000000  0.13333333  0.00000000
  0.00000000  0.13333333  0.33333333
  0.00000000  0.13333333  0.66666667
  0.00000000  0.20000000  0.00000000
  0.00000000  0.20000000  0.33333333
  0.00000000  0.20000000  0.66666667
  0.00000000  0.26666667  0.00000000
  0.00000000  0.26666667  0.33333333
  0.00000000  0.26666667  0.66666667
  0.00000000  0.33333333  0.00000000
  0.00000000  0.33333333  0.33333333
  0.00000000  0.33333333  0.66666667
  0.00000000  0.40000000  0.00000000
  0.00000000  0.40000000  0.33333333
  0.00000000  0.40000000  0.66666667
  0.00000000  0.46666667  0.00000000
  0.00000000  0.46666667  0.33333333
  0.00000000  0.46666667  0.66666667
  0.00000000  0.53333333  0.00000000
  0.00000000  0.53333333  0.33333333
  0.00000000  0.53333333  0.66666667
  0.00000000  0.60000000  0.00000000
  0.00000000  0.60000000  0.33333333
  0.00000000  0.60000000  0.66666667
  0.00000000  0.66666667  0.00000000
  0.00000000  0.66666667  0.33333333
  0.00000000  0.66666667  0.66666667
  0.00000000  0.73333333  0.00000000
  0.00000000  0.73333333  0.33333333
  0.00000000  0.73333333  0.66666667
  0.00000000  0.80000000  0.00000000
  0.00000000  0.80000000  0.33333333
  0.00000000  0.80000000  0.66666667
  0.00000000  0.86666667  0.00000000
  0.00000000  0.86666667  0.33333333
  0.00000000  0.86666667  0.66666667
  0.00000000  0.93333333  0.00000000
  0.00000000  0.93333333  0.33333333
  0.00000000  0.93333333  0.66666667
  0.06666667  0.00000000  0.00000000
  0.06666667  0.00000000  0.33333333
  0.06666667  0.00000000  0.66666667
  0.06666667  0.06666667  0.00000000
  0.06666667  0.06666667  0.33333333
  0.06666667  0.06666667  0.66666667
  0.06666667  0.13333333  0.00000000
  0.06666667  0.13333333  0.33333333
  0.06666667  0.13333333  0.66666667
  0.06666667  0.20000000  0.00000000
  0.06666667  0.20000000  0.33333333
  0.06666667  0.20000000  0.66666667
  0.06666667  0.26666667  0.00000000
  0.06666667  0.26666667  0.33333333
  0.06666667  0.26666667  0.66666667
  0.06666667  0.33333333  0.00000000
  0.06666667  0.33333333  0.33333333
  0.06666667  0.33333333  0.66666667
  0.06666667  0.40000000  0.00000000
  0.06666667  0.40000000  0.33333333
  0.06666667  0.40000000  0.66666667
  0.06666667  0.46666667  0.00000000
  0.06666667  0.46666667  0.33333333
  0.06666667  0.46666667  0.66666667
  0.06666667  0.53333333  0.00000000
  0.06666667  0.53333333  0.33333333
  0.06666667  0.53333333  0.66666667
  0.06666667  0.60000000  0.00000000
  0.06666667  0.60000000  0.33333333
  0.06666667  0.60000000  0.66666667
  0.06666667  0.66666667  0.00000000
  0.06666667  0.66666667  0.33333333
  0.06666667  0.66666667  0.66666667
  0.06666667  0.73333333  0.00000000
  0.06666667  0.73333333  0.33333333
  0.06666667  0.73333333  0.66666667
  0.06666667  0.80000000  0.00000000
  0.06666667  0.80000000  0.33333333
  0.06666667  0.80000000  0.66666667
  0.06666667  0.86666667  0.00000000
  0.06666667  0.86666667  0.33333333
  0.06666667  0.86666667  0.66666667
  0.06666667  0.93333333  0.00000000
  0.06666667  0.93333333  0.33333333
  0.06666667  0.93333333  0.66666667
  0.13333333  0.00000000  0.00000000
  0.13333333  0.00000000  0.33333333
  0.13333333  0.00000000  0.66666667
  0.13333333  0.06666667  0.00000000
  0.13333333  0.06666667  0.33333333
  0.13333333  0.06666667  0.66666667
  0.13333333  0.13333333  0.00000000
  0.13333333  0.13333333  0.33333333
  0.13333333  0.13333333  0.66666667
  0.13333333  0.20000000  0.00000000
  0.13333333  0.20000000  0.33333333
  0.13333333  0.20000000  0.66666667
  0.13333333  0.26666667  0.00000000
  0.13333333  0.26666667  0.33333333
  0.13333333  0.26666667  0.66666667
  0.13333333  0.33333333  0.00000000
  0.13333333  0.33333333  0.33333333
  0.13333333  0.33333333  0.66666667
  0.13333333  0.40000000  0.00000000
  0.13333333  0.40000000  0.33333333
  0.13333333  0.40000000  0.66666667
  0.13333333  0.46666667  0.00000000
  0.13333333  0.46666667  0.33333333
  0.13333333  0.46666667  0.66666667
  0.13333333  0.53333333  0.00000000
  0.13333333  0.53333333  0.33333333
  0.13333333  0.53333333  0.66666667
  0.13333333  0.60000000  0.00000000
  0.13333333  0.60000000  0.33333333
  0.13333333  0.60000000  0.66666667
  0.13333333  0.66666667  0.00000000
  0.13333333  0.66666667  0.33333333
  0.13333333  0.66666667  0.66666667
  0.13333333  0.73333333  0.00000000
  0.13333333  0.73333333  0.33333333
  0.13333333  0.73333333  0.66666667
  0.13333333  0.80000000  0.00000000
  0.13333333  0.80000000  0.33333333
  0.13333333  0.80000000  0.66666667
  0.13333333  0.86666667  0.00000000
  0.13333333  0.86666667  0.33333333
  0.13333333  0.86666667  0.66666667
  0.13333333  0.93333333  0.00000000
  0.13333333  0.93333333  0.33333333
  0.13333333  0.93333333  0.66666667
  0.20000000  0.00000000  0.00000000
  0.20000000  0.00000000  0.33333333
  0.20000000  0.00000000  0.66666667
  0.20000000  0.06666667  0.00000000
  0.20000000  0.06666667  0.33333333
  0.20000000  0.06666667  0.66666667
  0.20000000  0.13333333  0.00000000
  0.20000000  0.13333333  0.33333333
  0.20000000  0.13333333  0.66666667
  0.20000000  0.20000000  0.00000000
  0.20000000  0.20000000  0.33333333
  0.20000000  0.20000000  0.66666667
  0.20000000  0.26666667  0.00000000
  0.20000000  0.26666667  0.33333333
  0.20000000  0.26666667  0.66666667
  0.20000000  0.33333333  0.00000000
  0.20000000  0.33333333  0.33333333
  0.20000000  0.33333333  0.66666667
  0.20000000  0.40000000  0.00000000
  0.20000000  0.40000000  0.33333333
  0.20000000  0.40000000  0.66666667
  0.20000000  0.46666667  0.00000000
  0.20000000  0.46666667  0.33333333
  0.20000000  0.46666667  0.66666667
  0.20000000  0.53333333  0.00000000
  0.20000000  0.53333333  0.33333333
  0.20000000  0.53333333  0.66666667
  0.20000000  0.60000000  0.00000000
  0.20000000  0.60000000  0.33333333
  0.20000000  0.60000000  0.66666667
  0.20000000  0.66666667  0.00000000
  0.20000000  0.66666667  0.33333333
  0.20000000  0.66666667  0.66666667
  0.20000000  0.73333333  0.00000000
  0.20000000  0.73333333  0.33333333
  0.20000000  0.73333333  0.66666667
  0.20000000  0.80000000  0.00000000
  0.20000000  0.80000000  0.33333333
  0.20000000  0.80000000  0.66666667
  0.20000000  0.86666667  0.00000000
  0.20000000  0.86666667  0.33333333
  0.20000000  0.86666667  0.66666667
  0.20000000  0.93333333  0.00000000
  0.20000000  0.93333333  0.33333333
  0.20000000  0.93333333  0.66666667
  0.26666667  0.00000000  0.00000000
  0.26666667  0.00000000  0.33333333
  0.26666667  0.00000000  0.66666667
  0.26666667  0.06666667  0.00000000
  0.26666667  0.06666667  0.33333333
  0.26666667  0.06666667  0.66666667
  0.26666667  0.13333333  0.00000000
  0.26666667  0.13333333  0.33333333
  0.26666667  0.13333333  0.66666667
  0.26666667  0.20000000  0.00000000
  0.26666667  0.20000000  0.33333333
  0.26666667  0.20000000  0.66666667
  0.26666667  0.26666667  0.00000000
  0.26666667  0.26666667  0.33333333
  0.26666667  0.26666667  0.66666667
  0.26666667  0.33333333  0.00000000
  0.26666667  0.33333333  0.33333333
  0.26666667  0.33333333  0.66666667
  0.26666667  0.40000000  0.00000000
  0.26666667  0.40000000  0.33333333
  0.26666667  0.40000000  0.66666667
  0.26666667  0.46666667  0.00000000
  0.26666667  0.46666667  0.33333333
  0.26666667  0.46666667  0.66666667
  0.26666667  0.53333333  0.00000000
  0.26666667  0.53333333  0.33333333
  0.26666667  0.53333333  0.66666667
  0.26666667  0.60000000  0.00000000
  0.26666667  0.60000000  0.33333333
  0.26666667  0.60000000  0.66666667
  0.26666667  0.66666667  0.00000000
  0.26666667  0.66666667  0.33333333
  0.26666667  0.66666667  0.66666667
  0.26666667  0.73333333  0.00000000
  0.26666667  0.73333333  0.33333333
  0.26666667  0.73333333  0.66666667
  0.26666667  0.80000000  0.00000000
  0.26666667  0.80000000  0.33333333
  0.26666667  0.80000000  0.66666667
  0.26666667  0.86666667  0.00000000
  0.26666667  0.86666667  0.33333333
  0.26666667  0.86666667  0.66666667
  0.26666667  0.93333333  0.00000000
  0.26666667  0.93333333  0.33333333
  0.26666667  0.93333333  0.66666667
  0.33333333  0.00000000  0.00000000
  0.33333333  0.00000000  0.33333333
  0.33333333  0.00000000  0.66666667
  0.33333333  0.06666667  0.00000000
  0.33333333  0.06666667  0.33333333
  0.33333333  0.06666667  0.66666667
  0.33333333  0.13333333  0.00000000
  0.33333333  0.13333333  0.33333333
  0.33333333  0.13333333  0.66666667
  0.33333333  0.20000000  0.00000000
  0.33333333  0.20000000  0.33333333
  0.33333333  0.20000000  0.66666667
  0.33333333  0.26666667  0.00000000
  0.33333333  0.26666667  0.33333333
  0.33333333  0.26666667  0.66666667
  0.33333333  0.33333333  0.00000000
  0.33333333  0.33333333  0.33333333
  0.33333333  0.33333333  0.66666667
  0.33333333  0.40000000  0.00000000
  0.33333333  0.40000000  0.33333333
  0.33333333  0.40000000  0.66666667
  0.33333333  0.46666667  0.00000000
  0.33333333  0.46666667  0.33333333
  0.33333333  0.46666667  0.66666667
  0.33333333  0.53333333  0.00000000
  0.33333333  0.53333333  0.33333333
  0.33333333  0.53333333  0.66666667
  0.33333333  0.60000000  0.00000000
  0.33333333  0.60000000  0.33333333
  0.33333333  0.60000000  0.66666667
  0.33333333  0.66666667  0.00000000
  0.33333333  0.66666667  0.33333333
  0.33333333  0.66666667  0.66666667
  0.33333333  0.73333333  0.00000000
  0.33333333  0.73333333  0.33333333
  0.33333333  0.73333333  0.66666667
  0.33333333  0.80000000  0.00000000
  0.33333333  0.80000000  0.33333333
  0.33333333  0.80000000  0.66666667
  0.33333333  0.86666667  0.00000000
  0.33333333  0.86666667  0.33333333
  0.33333333  0.86666667  0.66666667
  0.33333333  0.93333333  0.00000000
  0.33333333  0.93333333  0.33333333
  0.33333333  0.93333333  0.66666667
  0.40000000  0.00000000  0.00000000
  0.40000000  0.00000000  0.33333333
  0.40000000  0.00000000  0.66666667
  0.40000000  0.06666667  0.00000000
  0.40000000  0.06666667  0.33333333
  0.40000000  0.06666667  0.66666667
  0.40000000  0.13333333  0.00000000
  0.40000000  0.13333333  0.33333333
  0.40000000  0.13333333  0.66666667
  0.40000000  0.20000000  0.00000000
  0.40000000  0.20000000  0.33333333
  0.40000000  0.20000000  0.66666667
  0.40000000  0.26666667  0.00000000
  0.40000000  0.26666667  0.33333333
  0.40000000  0.26666667  0.66666667
  0.40000000  0.33333333  0.00000000
  0.40000000  0.33333333  0.33333333
  0.40000000  0.33333333  0.66666667
  0.40000000  0.40000000  0.00000000
  0.40000000  0.40000000  0.33333333
  0.40000000  0.40000000  0.66666667
  0.40000000  0.46666667  0.00000000
  0.40000000  0.46666667  0.33333333
  0.40000000  0.46666667  0.66666667
  0.40000000  0.53333333  0.00000000
  0.40000000  0.53333333  0.33333333
  0.40000000  0.53333333  0.66666667
  0.40000000  0.60000000  0.00000000
  0.40000000  0.60000000  0.33333333
  0.40000000  0.60000000  0.66666667
  0.40000000  0.66666667  0.00000000
  0.40000000  0.66666667  0.33333333
  0.40000000  0.66666667  0.66666667
  0.40000000  0.73333333  0.00000000
  0.40000000  0.73333333  0.33333333
  0.40000000  0.73333333  0.66666667
  0.40000000  0.80000000  0.00000000
  0.40000000  0.80000000  0.33333333
  0.40000000  0.80000000  0.66666667
  0.40000000  0.86666667  0.00000000
  0.40000000  0.86666667  0.33333333
  0.40000000  0.86666667  0.66666667
  0.40000000  0.93333333  0.00000000
  0.40000000  0.93333333  0.33333333
  0.40000000  0.93333333  0.66666667
  0.46666667  0.00000000  0.00000000
  0.46666667  0.00000000  0.33333333
  0.46666667  0.00000000  0.66666667
  0.46666667  0.06666667  0.00000000
  0.46666667  0.06666667  0.33333333
  0.46666667  0.06666667  0.66666667
  0.46666667  0.13333333  0.00000000
  0.46666667  0.13333333  0.33333333
  0.46666667  0.13333333  0.66666667
  0.46666667  0.20000000  0.00000000
  0.46666667  0.20000000  0.33333333
  0.46666667  0.20000000  0.66666667
  0.46666667  0.26666667  0.00000000
  0.46666667  0.26666667  0.33333333
  0.46666667  0.26666667  0.66666667
  0.46666667  0.33333333  0.00000000
  0.46666667  0.33333333  0.33333333
  0.46666667  0.33333333  0.66666667
  0.46666667  0.40000000  0.00000000
  0.46666667  0.40000000  0.33333333
  0.46666667  0.40000000  0.66666667
  0.46666667  0.46666667  0.00000000
  0.46666667  0.46666667  0.33333333
  0.46666667  0.46666667  0.66666667
  0.46666667  0.53333333  0.00000000
  0.46666667  0.53333333  0.33333333
  0.46666667  0.53333333  0.66666667
  0.46666667  0.60000000  0.00000000
  0.46666667  0.60000000  0.33333333
  0.46666667  0.60000000  0.66666667
  0.46666667  0.66666667  0.00000000
  0.46666667  0.66666667  0.33333333
  0.46666667  0.66666667  0.66666667
  0.46666667  0.73333333  0.00000000
  0.46666667  0.73333333  0.33333333
  0.46666667  0.73333333  0.66666667
  0.46666667  0.80000000  0.00000000
  0.46666667  0.80000000  0.33333333
  0.46666667  0.80000000  0.66666667
  0.46666667  0.86666667  0.00000000
  0.46666667  0.86666667  0.33333333
  0.46666667  0.86666667  0.66666667
  0.46666667  0.93333333  0.00000000
  0.46666667  0.93333333  0.33333333
  0.46666667  0.93333333  0.66666667
  0.53333333  0.00000000  0.00000000
  0.53333333  0.00000000  0.33333333
  0.53333333  0.00000000  0.66666667
  0.53333333  0.06666667  0.00000000
  0.53333333  0.06666667  0.33333333
  0.53333333  0.06666667  0.66666667
  0.53333333  0.13333333  0.00000000
  0.53333333  0.13333333  0.33333333
  0.53333333  0.13333333  0.66666667
  0.53333333  0.20000000  0.00000000
  0.53333333  0.20000000  0.33333333
  0.53333333  0.20000000  0.66666667
  0.53333333  0.26666667  0.00000000
  0.53333333  0.26666667  0.33333333
  0.53333333  0.26666667  0.66666667
  0.53333333  0.33333333  0.00000000
  0.53333333  0.33333333  0.33333333
  0.53333333  0.33333333  0.66666667
  0.53333333  0.40000000  0.00000000
  0.53333333  0.40000000  0.33333333
  0.53333333  0.40000000  0.66666667
  0.53333333  0.46666667  0.00000000
  0.53333333  0.46666667  0.33333333
  0.53333333  0.46666667  0.66666667
  0.53333333  0.53333333  0.00000000
  0.53333333  0.53333333  0.33333333
  0.53333333  0.53333333  0.66666667
  0.53333333  0.60000000  0.00000000
  0.53333333  0.60000000  0.33333333
  0.53333333  0.60000000  0.66666667
  0.53333333  0.66666667  0.00000000
  0.53333333  0.66666667  0.33333333
  0.53333333  0.66666667  0.66666667
  0.53333333  0.73333333  0.00000000
  0.53333333  0.73333333  0.33333333
  0.53333333  0.73333333  0.66666667
  0.53333333  0.80000000  0.00000000
  0.53333333  0.80000000  0.33333333
  0.53333333  0.80000000  0.66666667
  0.53333333  0.86666667  0.00000000
  0.53333333  0.86666667  0.33333333
  0.53333333  0.86666667  0.66666667
  0.53333333  0.93333333  0.00000000
  0.53333333  0.93333333  0.33333333
  0.53333333  0.93333333  0.66666667
  0.60000000  0.00000000  0.00000000
  0.60000000  0.00000000  0.33333333
  0.60000000  0.00000000  0.66666667
  0.60000000  0.06666667  0.00000000
  0.60000000  0.06666667  0.33333333
  0.60000000  0.06666667  0.66666667
  0.60000000  0.13333333  0.00000000
  0.60000000  0.13333333  0.33333333
  0.60000000  0.13333333  0.66666667
  0.60000000  0.20000000  0.00000000
  0.60000000  0.20000000  0.33333333
  0.60000000  0.20000000  0.66666667
  0.60000000  0.26666667  0.00000000
  0.60000000  0.26666667  0.33333333
  0.60000000  0.26666667  0.66666667
  0.60000000  0.33333333  0.00000000
  0.60000000  0.33333333  0.33333333
  0.60000000  0.33333333  0.66666667
  0.60000000  0.40000000  0.00000000
  0.60000000  0.40000000  0.33333333
  0.60000000  0.40000000  0.66666667
  0.60000000  0.46666667  0.00000000
  0.60000000  0.46666667  0.33333333
  0.60000000  0.46666667  0.66666667
  0.60000000  0.53333333  0.00000000
  0.60000000  0.53333333  0.33333333
  0.60000000  0.53333333  0.66666667
  0.60000000  0.60000000  0.00000000
  0.60000000  0.60000000  0.33333333
  0.60000000  0.60000000  0.66666667
  0.60000000  0.66666667  0.00000000
  0.60000000  0.66666667  0.33333333
  0.60000000  0.66666667  0.66666667
  0.60000000  0.73333333  0.00000000
  0.60000000  0.73333333  0.33333333
  0.60000000  0.73333333  0.66666667
  0.60000000  0.80000000  0.00000000
  0.60000000  0.80000000  0.33333333
  0.60000000  0.80000000  0.66666667
  0.60000000  0.86666667  0.00000000
  0.60000000  0.86666667  0.33333333
  0.60000000  0.86666667  0.66666667
  0.60000000  0.93333333  0.00000000
  0.60000000  0.93333333  0.33333333
  0.60000000  0.93333333  0.66666667
  0.66666667  0.00000000  0.00000000
  0.66666667  0.00000000  0.33333333
  0.66666667  0.00000000  0.66666667
  0.66666667  0.06666667  0.00000000
  0.66666667  0.06666667  0.33333333
  0.66666667  0.06666667  0.66666667
  0.66666667  0.13333333  0.00000000
  0.66666667  0.13333333  0.33333333
  0.66666667  0.13333333  0.66666667
  0.66666667  0.20000000  0.00000000
  0.66666667  0.20000000  0.33333333
  0.66666667  0.20000000  0.66666667
  0.66666667  0.26666667  0.00000000
  0.66666667  0.26666667  0.33333333
  0.66666667  0.26666667  0.66666667
  0.66666667  0.33333333  0.00000000
  0.66666667  0.33333333  0.33333333
  0.66666667  0.33333333  0.66666667
  0.66666667  0.40000000  0.00000000
  0.66666667  0.40000000  0.33333333
  0.66666667  0.40000000  0.66666667
  0.66666667  0.46666667  0.00000000
  0.66666667  0.46666667  0.33333333
  0.66666667  0.46666667  0.66666667
  0.66666667  0.53333333  0.00000000
  0.66666667  0.53333333  0.33333333
  0.66666667  0.53333333  0.66666667
  0.66666667  0.60000000  0.00000000
  0.66666667  0.60000000  0.33333333
  0.66666667  0.60000000  0.66666667
  0.66666667  0.66666667  0.00000000
  0.66666667  0.66666667  0.33333333
  0.66666667  0.66666667  0.66666667
  0.66666667  0.73333333  0.00000000
  0.66666667  0.73333333  0.33333333
  0.66666667  0.73333333  0.66666667
  0.66666667  0.80000000  0.00000000
  0.66666667  0.80000000  0.33333333
  0.66666667  0.80000000  0.66666667
  0.66666667  0.86666667  0.00000000
  0.66666667  0.86666667  0.33333333
  0.66666667  0.86666667  0.66666667
  0.66666667  0.93333333  0.00000000
  0.66666667  0.93333333  0.33333333
  0.66666667  0.93333333  0.66666667
  0.73333333  0.00000000  0.00000000
  0.73333333  0.00000000  0.33333333
  0.73333333  0.00000000  0.66666667
  0.73333333  0.06666667  0.00000000
  0.73333333  0.06666667  0.33333333
  0.73333333  0.06666667  0.66666667
  0.73333333  0.13333333  0.00000000
  0.73333333  0.13333333  0.33333333
  0.73333333  0.13333333  0.66666667
  0.73333333  0.20000000  0.00000000
  0.73333333  0.20000000  0.33333333
  0.73333333  0.20000000  0.66666667
  0.73333333  0.26666667  0.00000000
  0.73333333  0.26666667  0.33333333
  0.73333333  0.26666667  0.66666667
  0.73333333  0.33333333  0.00000000
  0.73333333  0.33333333  0.33333333
  0.73333333  0.33333333  0.66666667
  0.73333333  0.40000000  0.00000000
  0.73333333  0.40000000  0.33333333
  0.73333333  0.40000000  0.66666667
  0.73333333  0.46666667  0.00000000
  0.73333333  0.46666667  0.33333333
  0.73333333  0.46666667  0.66666667
  0.73333333  0.53333333  0.00000000
  0.73333333  0.53333333  0.33333333
  0.73333333  0.53333333  0.66666667
  0.73333333  0.60000000  0.00000000
  0.73333333  0.60000000  0.33333333
  0.73333333  0.60000000  0.66666667
  0.73333333  0.66666667  0.00000000
  0.73333333  0.66666667  0.33333333
  0.73333333  0.66666667  0.66666667
  0.73333333  0.73333333  0.00000000
  0.73333333  0.73333333  0.33333333
  0.73333333  0.73333333  0.66666667
  0.73333333  0.80000000  0.00000000
  0.73333333  0.80000000  0.33333333
  0.73333333  0.80000000  0.66666667
  0.73333333  0.86666667  0.00000000
  0.73333333  0.86666667  0.33333333
  0.73333333  0.86666667  0.66666667
  0.73333333  0.93333333  0.00000000
  0.73333333  0.93333333  0.33333333
  0.73333333  0.93333333  0.66666667
  0.80000000  0.00000000  0.00000000
  0.80000000  0.00000000  0.33333333
  0.80000000  0.00000000  0.66666667
  0.80000000  0.06666667  0.00000000
  0.80000000  0.06666667  0.33333333
  0.80000000  0.06666667  0.66666667
  0.80000000  0.13333333  0.00000000
  0.80000000  0.13333333  0.33333333
  0.80000000  0.13333333  0.66666667
  0.80000000  0.20000000  0.00000000
  0.80000000  0.20000000  0.33333333
  0.80000000  0.20000000  0.66666667
  0.80000000  0.26666667  0.00000000
  0.80000000  0.26666667  0.33333333
  0.80000000  0.26666667  0.66666667
  0.80000000  0.33333333  0.00000000
  0.80000000  0.33333333  0.33333333
  0.80000000  0.33333333  0.66666667
  0.80000000  0.40000000  0.00000000
  0.80000000  0.40000000  0.33333333
  0.80000000  0.40000000  0.66666667
  0.80000000  0.46666667  0.00000000
  0.80000000  0.46666667  0.33333333
  0.80000000  0.46666667  0.66666667
  0.80000000  0.53333333  0.00000000
  0.80000000  0.53333333  0.33333333
  0.80000000  0.53333333  0.66666667
  0.80000000  0.60000000  0.00000000
  0.80000000  0.60000000  0.33333333
  0.80000000  0.60000000  0.66666667
  0.80000000  0.66666667  0.00000000
  0.80000000  0.66666667  0.33333333
  0.80000000  0.66666667  0.66666667
  0.80000000  0.73333333  0.00000000
  0.80000000  0.73333333  0.33333333
  0.80000000  0.73333333  0.66666667
  0.80000000  0.80000000  0.00000000
  0.80000000  0.80000000  0.33333333
  0.80000000  0.80000000  0.66666667
  0.80000000  0.86666667  0.00000000
  0.80000000  0.86666667  0.33333333
  0.80000000  0.86666667  0.66666667
  0.80000000  0.93333333  0.00000000
  0.80000000  0.93333333  0.33333333
  0.80000000  0.93333333  0.66666667
  0.86666667  0.00000000  0.00000000
  0.86666667  0.00000000  0.33333333
  0.86666667  0.00000000  0.66666667
  0.86666667  0.06666667  0.00000000
  0.86666667  0.06666667  0.33333333
  0.86666667  0.06666667  0.66666667
  0.86666667  0.13333333  0.00000000
  0.86666667  0.13333333  0.33333333
  0.86666667  0.13333333  0.66666667
  0.86666667  0.20000000  0.00000000
  0.86666667  0.20000000  0.33333333
  0.86666667  0.20000000  0.66666667
  0.86666667  0.26666667  0.00000000
  0.86666667  0.26666667  0.33333333
  0.86666667  0.26666667  0.66666667
  0.86666667  0.33333333  0.00000000
  0.86666667  0.33333333  0.33333333
  0.86666667  0.33333333  0.66666667
  0.86666667  0.40000000  0.00000000
  0.86666667  0.40000000  0.33333333
  0.86666667  0.40000000  0.66666667
  0.86666667  0.46666667  0.00000000
  0.86666667  0.46666667  0.33333333
  0.86666667  0.46666667  0.66666667
  0.86666667  0.53333333  0.00000000
  0.86666667  0.53333333  0.33333333
  0.86666667  0.53333333  0.66666667
  0.86666667  0.60000000  0.00000000
  0.86666667  0.60000000  0.33333333
  0.86666667  0.60000000  0.66666667
  0.86666667  0.66666667  0.00000000
  0.86666667  0.66666667  0.33333333
  0.86666667  0.66666667  0.66666667
  0.86666667  0.73333333  0.00000000
  0.86666667  0.73333333  0.33333333
  0.86666667  0.73333333  0.66666667
  0.86666667  0.80000000  0.00000000
  0.86666667  0.80000000  0.33333333
  0.86666667  0.80000000  0.66666667
  0.86666667  0.86666667  0.00000000
  0.86666667  0.86666667  0.33333333
  0.86666667  0.86666667  0.66666667
  0.86666667  0.93333333  0.00000000
  0.86666667  0.93333333  0.33333333
  0.86666667  0.93333333  0.66666667
  0.93333333  0.00000000  0.00000000
  0.93333333  0.00000000  0.33333333
  0.93333333  0.00000000  0.66666667
  0.93333333  0.06666667  0.00000000
  0.93333333  0.06666667  0.33333333
  0.93333333  0.06666667  0.66666667
  0.93333333  0.13333333  0.00000000
  0.93333333  0.13333333  0.33333333
  0.93333333  0.13333333  0.66666667
  0.93333333  0.20000000  0.00000000
  0.93333333  0.20000000  0.33333333
  0.93333333  0.20000000  0.66666667
  0.93333333  0.26666667  0.00000000
  0.93333333  0.26666667  0.33333333
  0.93333333  0.26666667  0.66666667
  0.93333333  0.33333333  0.00000000
  0.93333333  0.33333333  0.33333333
  0.93333333  0.33333333  0.66666667
  0.93333333  0.40000000  0.00000000
  0.93333333  0.40000000  0.33333333
  0.93333333  0.40000000  0.66666667
  0.93333333  0.46666667  0.00000000
  0.93333333  0.46666667  0.33333333
  0.93333333  0.46666667  0.66666667
  0.93333333  0.53333333  0.00000000
  0.93333333  0.53333333  0.33333333
  0.93333333  0.53333333  0.66666667
  0.93333333  0.60000000  0.00000000
  0.93333333  0.60000000  0.33333333
  0.93333333  0.60000000  0.66666667
  0.93333333  0.66666667  0.00000000
  0.93333333  0.66666667  0.33333333
  0.93333333  0.66666667  0.66666667
  0.93333333  0.73333333  0.00000000
  0.93333333  0.73333333  0.33333333
  0.93333333  0.73333333  0.66666667
  0.93333333  0.80000000  0.00000000
  0.93333333  0.80000000  0.33333333
  0.93333333  0.80000000  0.66666667
  0.93333333  0.86666667  0.00000000
  0.93333333  0.86666667  0.33333333
  0.93333333  0.86666667  0.66666667
  0.93333333  0.93333333  0.00000000
  0.93333333  0.93333333  0.33333333
  0.93333333  0.93333333  0.66666667
end kpoints
