num_bands = 15
exclude_bands:1
 num_wann =    2  ! set to NBANDS by VASP

dis_win_max = 9
dis_num_iter = 1e4

#use_bloch_phases = T

begin projections
C:pz
end projections

guiding_centres = .true.

bands_plot = true
bands_num_points = 100
bands_plot_format = gnuplot

begin kpoint_path
G 0.00000 0.00000 0.00000 K 0.33333 0.33333 0.00000
K 0.33333 0.33333 0.00000 M 0.00000 0.50000 0.00000
M 0.00000 0.50000 0.00000 G 0.00000 0.00000 0.00000
end kpoint_path

write_hr = true

begin unit_cell_cart
     2.4472605     0.0000000     0.0000000
    -1.2236302     2.1193898     0.0000000
     0.0000000     0.0000000    20.0000000
end unit_cell_cart

begin atoms_cart
C        0.0000000     0.0000000    10.0000000
C        1.2236302     0.7064633    10.0000000
end atoms_cart

mp_grid =    15    15     1

begin kpoints
      0.000000000000      0.000000000000      0.000000000000
      0.066666666667     -0.000000000000      0.000000000000
      0.133333333333      0.000000000000      0.000000000000
      0.200000000000      0.000000000000      0.000000000000
      0.266666666667     -0.000000000000      0.000000000000
      0.333333333333      0.000000000000      0.000000000000
      0.400000000000      0.000000000000      0.000000000000
      0.466666666667     -0.000000000000      0.000000000000
      0.066666666667      0.066666666667      0.000000000000
      0.133333333333      0.066666666667      0.000000000000
      0.200000000000      0.066666666667      0.000000000000
      0.266666666667      0.066666666667      0.000000000000
      0.333333333333      0.066666666667      0.000000000000
      0.400000000000      0.066666666667      0.000000000000
      0.466666666667      0.066666666667      0.000000000000
      0.133333333333      0.133333333333      0.000000000000
      0.200000000000      0.133333333333      0.000000000000
      0.266666666667      0.133333333333      0.000000000000
      0.333333333333      0.133333333333      0.000000000000
      0.400000000000      0.133333333333      0.000000000000
      0.200000000000      0.200000000000      0.000000000000
      0.266666666667      0.200000000000      0.000000000000
      0.333333333333      0.200000000000      0.000000000000
      0.400000000000      0.200000000000      0.000000000000
      0.266666666667      0.266666666667      0.000000000000
      0.333333333333      0.266666666667      0.000000000000
      0.333333333333      0.333333333333      0.000000000000
     -0.000000000000     -0.066666666667      0.000000000000
     -0.066666666667      0.066666666667      0.000000000000
     -0.066666666667      0.000000000000      0.000000000000
      0.000000000000      0.066666666667      0.000000000000
      0.066666666667     -0.066666666667      0.000000000000
      0.000000000000     -0.133333333333      0.000000000000
     -0.133333333333      0.133333333333      0.000000000000
     -0.133333333333     -0.000000000000      0.000000000000
     -0.000000000000      0.133333333333      0.000000000000
      0.133333333333     -0.133333333333      0.000000000000
      0.000000000000     -0.200000000000      0.000000000000
     -0.200000000000      0.200000000000      0.000000000000
     -0.200000000000     -0.000000000000      0.000000000000
     -0.000000000000      0.200000000000      0.000000000000
      0.200000000000     -0.200000000000      0.000000000000
     -0.000000000000     -0.266666666667      0.000000000000
     -0.266666666667      0.266666666667      0.000000000000
     -0.266666666667      0.000000000000      0.000000000000
      0.000000000000      0.266666666667      0.000000000000
      0.266666666667     -0.266666666667      0.000000000000
      0.000000000000     -0.333333333333      0.000000000000
     -0.333333333333      0.333333333333      0.000000000000
     -0.333333333333      0.000000000000      0.000000000000
      0.000000000000      0.333333333333      0.000000000000
      0.333333333333     -0.333333333333      0.000000000000
      0.000000000000     -0.400000000000      0.000000000000
     -0.400000000000      0.400000000000      0.000000000000
     -0.400000000000     -0.000000000000      0.000000000000
     -0.000000000000      0.400000000000      0.000000000000
      0.400000000000     -0.400000000000      0.000000000000
     -0.000000000000     -0.466666666667      0.000000000000
     -0.466666666667      0.466666666667      0.000000000000
     -0.466666666667      0.000000000000      0.000000000000
      0.000000000000      0.466666666667      0.000000000000
      0.466666666667     -0.466666666667      0.000000000000
      0.066666666667     -0.133333333333      0.000000000000
     -0.133333333333      0.066666666667      0.000000000000
     -0.066666666667      0.133333333333      0.000000000000
     -0.066666666667     -0.066666666667      0.000000000000
      0.133333333333     -0.066666666667      0.000000000000
      0.066666666667     -0.200000000000      0.000000000000
     -0.200000000000      0.133333333333      0.000000000000
     -0.133333333333      0.200000000000      0.000000000000
     -0.066666666667     -0.133333333333      0.000000000000
      0.200000000000     -0.066666666667      0.000000000000
     -0.133333333333     -0.066666666667      0.000000000000
     -0.066666666667      0.200000000000      0.000000000000
      0.200000000000     -0.133333333333      0.000000000000
      0.133333333333     -0.200000000000      0.000000000000
      0.066666666667      0.133333333333      0.000000000000
     -0.200000000000      0.066666666667      0.000000000000
      0.066666666667     -0.266666666667      0.000000000000
     -0.266666666667      0.200000000000      0.000000000000
     -0.200000000000      0.266666666667      0.000000000000
     -0.066666666667     -0.200000000000      0.000000000000
      0.266666666667     -0.066666666667      0.000000000000
     -0.200000000000     -0.066666666667      0.000000000000
     -0.066666666667      0.266666666667      0.000000000000
      0.266666666667     -0.200000000000      0.000000000000
      0.200000000000     -0.266666666667      0.000000000000
      0.066666666667      0.200000000000      0.000000000000
     -0.266666666667      0.066666666667      0.000000000000
      0.066666666667     -0.333333333333      0.000000000000
     -0.333333333333      0.266666666667      0.000000000000
     -0.266666666667      0.333333333333      0.000000000000
     -0.066666666667     -0.266666666667      0.000000000000
      0.333333333333     -0.066666666667      0.000000000000
     -0.266666666667     -0.066666666667      0.000000000000
     -0.066666666667      0.333333333333      0.000000000000
      0.333333333333     -0.266666666667      0.000000000000
      0.266666666667     -0.333333333333      0.000000000000
      0.066666666667      0.266666666667      0.000000000000
     -0.333333333333      0.066666666667      0.000000000000
      0.066666666667     -0.400000000000      0.000000000000
     -0.400000000000      0.333333333333      0.000000000000
     -0.333333333333      0.400000000000      0.000000000000
     -0.066666666667     -0.333333333333      0.000000000000
      0.400000000000     -0.066666666667      0.000000000000
     -0.333333333333     -0.066666666667      0.000000000000
     -0.066666666667      0.400000000000      0.000000000000
      0.400000000000     -0.333333333333      0.000000000000
      0.333333333333     -0.400000000000      0.000000000000
      0.066666666667      0.333333333333      0.000000000000
     -0.400000000000      0.066666666667      0.000000000000
      0.066666666667     -0.466666666667      0.000000000000
     -0.466666666667      0.400000000000      0.000000000000
     -0.400000000000      0.466666666667      0.000000000000
     -0.066666666667     -0.400000000000      0.000000000000
      0.466666666667     -0.066666666667      0.000000000000
     -0.400000000000     -0.066666666667      0.000000000000
     -0.066666666667      0.466666666667      0.000000000000
      0.466666666667     -0.400000000000      0.000000000000
      0.400000000000     -0.466666666667      0.000000000000
      0.066666666667      0.400000000000      0.000000000000
     -0.466666666667      0.066666666667      0.000000000000
      0.066666666667     -0.533333333333      0.000000000000
     -0.533333333333      0.466666666667      0.000000000000
     -0.466666666667      0.533333333333      0.000000000000
     -0.066666666667     -0.466666666667      0.000000000000
      0.533333333333     -0.066666666667      0.000000000000
      0.133333333333     -0.266666666667      0.000000000000
     -0.266666666667      0.133333333333      0.000000000000
     -0.133333333333      0.266666666667      0.000000000000
     -0.133333333333     -0.133333333333      0.000000000000
      0.266666666667     -0.133333333333      0.000000000000
      0.133333333333     -0.333333333333      0.000000000000
     -0.333333333333      0.200000000000      0.000000000000
     -0.200000000000      0.333333333333      0.000000000000
     -0.133333333333     -0.200000000000      0.000000000000
      0.333333333333     -0.133333333333      0.000000000000
     -0.200000000000     -0.133333333333      0.000000000000
     -0.133333333333      0.333333333333      0.000000000000
      0.333333333333     -0.200000000000      0.000000000000
      0.200000000000     -0.333333333333      0.000000000000
      0.133333333333      0.200000000000      0.000000000000
     -0.333333333333      0.133333333333      0.000000000000
      0.133333333333     -0.400000000000      0.000000000000
     -0.400000000000      0.266666666667      0.000000000000
     -0.266666666667      0.400000000000      0.000000000000
     -0.133333333333     -0.266666666667      0.000000000000
      0.400000000000     -0.133333333333      0.000000000000
     -0.266666666667     -0.133333333333      0.000000000000
     -0.133333333333      0.400000000000      0.000000000000
      0.400000000000     -0.266666666667      0.000000000000
      0.266666666667     -0.400000000000      0.000000000000
      0.133333333333      0.266666666667      0.000000000000
     -0.400000000000      0.133333333333      0.000000000000
      0.133333333333     -0.466666666667      0.000000000000
     -0.466666666667      0.333333333333      0.000000000000
     -0.333333333333      0.466666666667      0.000000000000
     -0.133333333333     -0.333333333333      0.000000000000
      0.466666666667     -0.133333333333      0.000000000000
     -0.333333333333     -0.133333333333      0.000000000000
     -0.133333333333      0.466666666667      0.000000000000
      0.466666666667     -0.333333333333      0.000000000000
      0.333333333333     -0.466666666667      0.000000000000
      0.133333333333      0.333333333333      0.000000000000
     -0.466666666667      0.133333333333      0.000000000000
      0.133333333333     -0.533333333333      0.000000000000
     -0.533333333333      0.400000000000      0.000000000000
     -0.400000000000      0.533333333333      0.000000000000
     -0.133333333333     -0.400000000000      0.000000000000
      0.533333333333     -0.133333333333      0.000000000000
     -0.400000000000     -0.133333333333      0.000000000000
     -0.133333333333      0.533333333333      0.000000000000
      0.533333333333     -0.400000000000      0.000000000000
      0.400000000000     -0.533333333333      0.000000000000
      0.133333333333      0.400000000000      0.000000000000
     -0.533333333333      0.133333333333      0.000000000000
      0.200000000000     -0.400000000000      0.000000000000
     -0.400000000000      0.200000000000      0.000000000000
     -0.200000000000      0.400000000000      0.000000000000
     -0.200000000000     -0.200000000000      0.000000000000
      0.400000000000     -0.200000000000      0.000000000000
      0.200000000000     -0.466666666667      0.000000000000
     -0.466666666667      0.266666666667      0.000000000000
     -0.266666666667      0.466666666667      0.000000000000
     -0.200000000000     -0.266666666667      0.000000000000
      0.466666666667     -0.200000000000      0.000000000000
     -0.266666666667     -0.200000000000      0.000000000000
     -0.200000000000      0.466666666667      0.000000000000
      0.466666666667     -0.266666666667      0.000000000000
      0.266666666667     -0.466666666667      0.000000000000
      0.200000000000      0.266666666667      0.000000000000
     -0.466666666667      0.200000000000      0.000000000000
      0.200000000000     -0.533333333333      0.000000000000
     -0.533333333333      0.333333333333      0.000000000000
     -0.333333333333      0.533333333333      0.000000000000
     -0.200000000000     -0.333333333333      0.000000000000
      0.533333333333     -0.200000000000      0.000000000000
     -0.333333333333     -0.200000000000      0.000000000000
     -0.200000000000      0.533333333333      0.000000000000
      0.533333333333     -0.333333333333      0.000000000000
      0.333333333333     -0.533333333333      0.000000000000
      0.200000000000      0.333333333333      0.000000000000
     -0.533333333333      0.200000000000      0.000000000000
      0.200000000000     -0.600000000000      0.000000000000
     -0.600000000000      0.400000000000      0.000000000000
     -0.400000000000      0.600000000000      0.000000000000
     -0.200000000000     -0.400000000000      0.000000000000
      0.600000000000     -0.200000000000      0.000000000000
      0.266666666667     -0.533333333333      0.000000000000
     -0.533333333333      0.266666666667      0.000000000000
     -0.266666666667      0.533333333333      0.000000000000
     -0.266666666667     -0.266666666667      0.000000000000
      0.533333333333     -0.266666666667      0.000000000000
      0.266666666667     -0.600000000000      0.000000000000
     -0.600000000000      0.333333333333      0.000000000000
     -0.333333333333      0.600000000000      0.000000000000
     -0.266666666667     -0.333333333333      0.000000000000
      0.600000000000     -0.266666666667      0.000000000000
     -0.333333333333     -0.266666666667      0.000000000000
     -0.266666666667      0.600000000000      0.000000000000
      0.600000000000     -0.333333333333      0.000000000000
      0.333333333333     -0.600000000000      0.000000000000
      0.266666666667      0.333333333333      0.000000000000
     -0.600000000000      0.266666666667      0.000000000000
     -0.333333333333      0.666666666667      0.000000000000
end kpoints
