 C 
 1.0000000000000000
     2.4472604981807695    0.0000000000000000    0.0000000000000000
    -1.2236302490903848    2.1193897611027075    0.0000000000000000
     0.0000000000000000    0.0000000000000000   20.0000000000000000
 C  
   2
Cartesian
  0.0000000000000000  0.0000000000000000 10.0000000000000000
  1.2236302490903761  0.7064632537009076 10.0000000000000000
