KPOINTS created by Atomic Simulation Environment
0
Monkhorst-Pack
15 15 3 
0 0 0
