&CONTROL
   calculation      = 'bands'
   verbosity        = 'high'
   outdir           = './tmp'
   prefix           = 'graphene'
   pseudo_dir       = '/opt/LDA'
/
&SYSTEM
   ibrav            = 4
   nbnd             = 16
   ecutwfc          = 60
   ecutrho          = 480
   occupations      = 'smearing'
   degauss          = 0.1
   smearing         = 'gauss'
   assume_isolated  = '2D'
   ntyp             = 1
   nat              = 2
   celldm(1)        = 4.624652119457427
   celldm(3)        = 8.172403393454635
/
&ELECTRONS
   conv_thr         = 1e-12
/
&IONS
/
&CELL
/

ATOMIC_SPECIES
C 12.011 C.pz-n-kjpaw_psl.1.0.0.UPF

K_POINTS crystal_b
238
0.00000000000000 0.00000000000000 0.00000000000000 0
0.00333333333333 0.00333333333333 0.00000000000000 0
0.00666666666667 0.00666666666667 0.00000000000000 0
0.01000000000000 0.01000000000000 0.00000000000000 0
0.01333333333333 0.01333333333333 0.00000000000000 0
0.01666666666667 0.01666666666667 0.00000000000000 0
0.02000000000000 0.02000000000000 0.00000000000000 0
0.02333333333333 0.02333333333333 0.00000000000000 0
0.02666666666667 0.02666666666667 0.00000000000000 0
0.03000000000000 0.03000000000000 0.00000000000000 0
0.03333333333333 0.03333333333333 0.00000000000000 0
0.03666666666667 0.03666666666667 0.00000000000000 0
0.04000000000000 0.04000000000000 0.00000000000000 0
0.04333333333333 0.04333333333333 0.00000000000000 0
0.04666666666667 0.04666666666667 0.00000000000000 0
0.05000000000000 0.05000000000000 0.00000000000000 0
0.05333333333333 0.05333333333333 0.00000000000000 0
0.05666666666667 0.05666666666667 0.00000000000000 0
0.06000000000000 0.06000000000000 0.00000000000000 0
0.06333333333333 0.06333333333333 0.00000000000000 0
0.06666666666667 0.06666666666667 0.00000000000000 0
0.07000000000000 0.07000000000000 0.00000000000000 0
0.07333333333333 0.07333333333333 0.00000000000000 0
0.07666666666667 0.07666666666667 0.00000000000000 0
0.08000000000000 0.08000000000000 0.00000000000000 0
0.08333333333333 0.08333333333333 0.00000000000000 0
0.08666666666667 0.08666666666667 0.00000000000000 0
0.09000000000000 0.09000000000000 0.00000000000000 0
0.09333333333333 0.09333333333333 0.00000000000000 0
0.09666666666667 0.09666666666667 0.00000000000000 0
0.10000000000000 0.10000000000000 0.00000000000000 0
0.10333333333333 0.10333333333333 0.00000000000000 0
0.10666666666667 0.10666666666667 0.00000000000000 0
0.11000000000000 0.11000000000000 0.00000000000000 0
0.11333333333333 0.11333333333333 0.00000000000000 0
0.11666666666667 0.11666666666667 0.00000000000000 0
0.12000000000000 0.12000000000000 0.00000000000000 0
0.12333333333333 0.12333333333333 0.00000000000000 0
0.12666666666667 0.12666666666667 0.00000000000000 0
0.13000000000000 0.13000000000000 0.00000000000000 0
0.13333333333333 0.13333333333333 0.00000000000000 0
0.13666666666667 0.13666666666667 0.00000000000000 0
0.14000000000000 0.14000000000000 0.00000000000000 0
0.14333333333333 0.14333333333333 0.00000000000000 0
0.14666666666667 0.14666666666667 0.00000000000000 0
0.15000000000000 0.15000000000000 0.00000000000000 0
0.15333333333333 0.15333333333333 0.00000000000000 0
0.15666666666667 0.15666666666667 0.00000000000000 0
0.16000000000000 0.16000000000000 0.00000000000000 0
0.16333333333333 0.16333333333333 0.00000000000000 0
0.16666666666667 0.16666666666667 0.00000000000000 0
0.17000000000000 0.17000000000000 0.00000000000000 0
0.17333333333333 0.17333333333333 0.00000000000000 0
0.17666666666667 0.17666666666667 0.00000000000000 0
0.18000000000000 0.18000000000000 0.00000000000000 0
0.18333333333333 0.18333333333333 0.00000000000000 0
0.18666666666667 0.18666666666667 0.00000000000000 0
0.19000000000000 0.19000000000000 0.00000000000000 0
0.19333333333333 0.19333333333333 0.00000000000000 0
0.19666666666667 0.19666666666667 0.00000000000000 0
0.20000000000000 0.20000000000000 0.00000000000000 0
0.20333333333333 0.20333333333333 0.00000000000000 0
0.20666666666667 0.20666666666667 0.00000000000000 0
0.21000000000000 0.21000000000000 0.00000000000000 0
0.21333333333333 0.21333333333333 0.00000000000000 0
0.21666666666667 0.21666666666667 0.00000000000000 0
0.22000000000000 0.22000000000000 0.00000000000000 0
0.22333333333333 0.22333333333333 0.00000000000000 0
0.22666666666667 0.22666666666667 0.00000000000000 0
0.23000000000000 0.23000000000000 0.00000000000000 0
0.23333333333333 0.23333333333333 0.00000000000000 0
0.23666666666667 0.23666666666667 0.00000000000000 0
0.24000000000000 0.24000000000000 0.00000000000000 0
0.24333333333333 0.24333333333333 0.00000000000000 0
0.24666666666667 0.24666666666667 0.00000000000000 0
0.25000000000000 0.25000000000000 0.00000000000000 0
0.25333333333333 0.25333333333333 0.00000000000000 0
0.25666666666667 0.25666666666667 0.00000000000000 0
0.26000000000000 0.26000000000000 0.00000000000000 0
0.26333333333333 0.26333333333333 0.00000000000000 0
0.26666666666667 0.26666666666667 0.00000000000000 0
0.27000000000000 0.27000000000000 0.00000000000000 0
0.27333333333333 0.27333333333333 0.00000000000000 0
0.27666666666667 0.27666666666667 0.00000000000000 0
0.28000000000000 0.28000000000000 0.00000000000000 0
0.28333333333333 0.28333333333333 0.00000000000000 0
0.28666666666667 0.28666666666667 0.00000000000000 0
0.29000000000000 0.29000000000000 0.00000000000000 0
0.29333333333333 0.29333333333333 0.00000000000000 0
0.29666666666667 0.29666666666667 0.00000000000000 0
0.30000000000000 0.30000000000000 0.00000000000000 0
0.30333333333333 0.30333333333333 0.00000000000000 0
0.30666666666667 0.30666666666667 0.00000000000000 0
0.31000000000000 0.31000000000000 0.00000000000000 0
0.31333333333333 0.31333333333333 0.00000000000000 0
0.31666666666667 0.31666666666667 0.00000000000000 0
0.32000000000000 0.32000000000000 0.00000000000000 0
0.32333333333333 0.32333333333333 0.00000000000000 0
0.32666666666667 0.32666666666667 0.00000000000000 0
0.33000000000000 0.33000000000000 0.00000000000000 0
0.33333333333333 0.33333333333333 0.00000000000000 0
0.33666666666667 0.32666666666667 0.00000000000000 0
0.34000000000000 0.32000000000000 0.00000000000000 0
0.34333333333333 0.31333333333333 0.00000000000000 0
0.34666666666667 0.30666666666667 0.00000000000000 0
0.35000000000000 0.30000000000000 0.00000000000000 0
0.35333333333333 0.29333333333333 0.00000000000000 0
0.35666666666667 0.28666666666667 0.00000000000000 0
0.36000000000000 0.28000000000000 0.00000000000000 0
0.36333333333333 0.27333333333333 0.00000000000000 0
0.36666666666667 0.26666666666667 0.00000000000000 0
0.37000000000000 0.26000000000000 0.00000000000000 0
0.37333333333333 0.25333333333333 0.00000000000000 0
0.37666666666667 0.24666666666667 0.00000000000000 0
0.38000000000000 0.24000000000000 0.00000000000000 0
0.38333333333333 0.23333333333333 0.00000000000000 0
0.38666666666667 0.22666666666667 0.00000000000000 0
0.39000000000000 0.22000000000000 0.00000000000000 0
0.39333333333333 0.21333333333333 0.00000000000000 0
0.39666666666667 0.20666666666667 0.00000000000000 0
0.40000000000000 0.20000000000000 0.00000000000000 0
0.40333333333333 0.19333333333333 0.00000000000000 0
0.40666666666667 0.18666666666667 0.00000000000000 0
0.41000000000000 0.18000000000000 0.00000000000000 0
0.41333333333333 0.17333333333333 0.00000000000000 0
0.41666666666667 0.16666666666667 0.00000000000000 0
0.42000000000000 0.16000000000000 0.00000000000000 0
0.42333333333333 0.15333333333333 0.00000000000000 0
0.42666666666667 0.14666666666667 0.00000000000000 0
0.43000000000000 0.14000000000000 0.00000000000000 0
0.43333333333333 0.13333333333333 0.00000000000000 0
0.43666666666667 0.12666666666667 0.00000000000000 0
0.44000000000000 0.12000000000000 0.00000000000000 0
0.44333333333333 0.11333333333333 0.00000000000000 0
0.44666666666667 0.10666666666667 0.00000000000000 0
0.45000000000000 0.10000000000000 0.00000000000000 0
0.45333333333333 0.09333333333333 0.00000000000000 0
0.45666666666667 0.08666666666667 0.00000000000000 0
0.46000000000000 0.08000000000000 0.00000000000000 0
0.46333333333333 0.07333333333333 0.00000000000000 0
0.46666666666667 0.06666666666667 0.00000000000000 0
0.47000000000000 0.06000000000000 0.00000000000000 0
0.47333333333333 0.05333333333333 0.00000000000000 0
0.47666666666667 0.04666666666667 0.00000000000000 0
0.48000000000000 0.04000000000000 0.00000000000000 0
0.48333333333333 0.03333333333333 0.00000000000000 0
0.48666666666667 0.02666666666667 0.00000000000000 0
0.49000000000000 0.02000000000000 0.00000000000000 0
0.49333333333333 0.01333333333333 0.00000000000000 0
0.49666666666667 0.00666666666667 0.00000000000000 0
0.50000000000000 0.00000000000000 0.00000000000000 0
0.49425287356322 0.00000000000000 0.00000000000000 0
0.48850574712644 0.00000000000000 0.00000000000000 0
0.48275862068966 0.00000000000000 0.00000000000000 0
0.47701149425287 0.00000000000000 0.00000000000000 0
0.47126436781609 0.00000000000000 0.00000000000000 0
0.46551724137931 0.00000000000000 0.00000000000000 0
0.45977011494253 0.00000000000000 0.00000000000000 0
0.45402298850575 0.00000000000000 0.00000000000000 0
0.44827586206897 0.00000000000000 0.00000000000000 0
0.44252873563218 0.00000000000000 0.00000000000000 0
0.43678160919540 0.00000000000000 0.00000000000000 0
0.43103448275862 0.00000000000000 0.00000000000000 0
0.42528735632184 0.00000000000000 0.00000000000000 0
0.41954022988506 0.00000000000000 0.00000000000000 0
0.41379310344828 0.00000000000000 0.00000000000000 0
0.40804597701149 0.00000000000000 0.00000000000000 0
0.40229885057471 0.00000000000000 0.00000000000000 0
0.39655172413793 0.00000000000000 0.00000000000000 0
0.39080459770115 0.00000000000000 0.00000000000000 0
0.38505747126437 0.00000000000000 0.00000000000000 0
0.37931034482759 0.00000000000000 0.00000000000000 0
0.37356321839080 0.00000000000000 0.00000000000000 0
0.36781609195402 0.00000000000000 0.00000000000000 0
0.36206896551724 0.00000000000000 0.00000000000000 0
0.35632183908046 0.00000000000000 0.00000000000000 0
0.35057471264368 0.00000000000000 0.00000000000000 0
0.34482758620690 0.00000000000000 0.00000000000000 0
0.33908045977011 0.00000000000000 0.00000000000000 0
0.33333333333333 0.00000000000000 0.00000000000000 0
0.32758620689655 0.00000000000000 0.00000000000000 0
0.32183908045977 0.00000000000000 0.00000000000000 0
0.31609195402299 0.00000000000000 0.00000000000000 0
0.31034482758621 0.00000000000000 0.00000000000000 0
0.30459770114943 0.00000000000000 0.00000000000000 0
0.29885057471264 0.00000000000000 0.00000000000000 0
0.29310344827586 0.00000000000000 0.00000000000000 0
0.28735632183908 0.00000000000000 0.00000000000000 0
0.28160919540230 0.00000000000000 0.00000000000000 0
0.27586206896552 0.00000000000000 0.00000000000000 0
0.27011494252874 0.00000000000000 0.00000000000000 0
0.26436781609195 0.00000000000000 0.00000000000000 0
0.25862068965517 0.00000000000000 0.00000000000000 0
0.25287356321839 0.00000000000000 0.00000000000000 0
0.24712643678161 0.00000000000000 0.00000000000000 0
0.24137931034483 0.00000000000000 0.00000000000000 0
0.23563218390805 0.00000000000000 0.00000000000000 0
0.22988505747126 0.00000000000000 0.00000000000000 0
0.22413793103448 0.00000000000000 0.00000000000000 0
0.21839080459770 0.00000000000000 0.00000000000000 0
0.21264367816092 0.00000000000000 0.00000000000000 0
0.20689655172414 0.00000000000000 0.00000000000000 0
0.20114942528736 0.00000000000000 0.00000000000000 0
0.19540229885057 0.00000000000000 0.00000000000000 0
0.18965517241379 0.00000000000000 0.00000000000000 0
0.18390804597701 0.00000000000000 0.00000000000000 0
0.17816091954023 0.00000000000000 0.00000000000000 0
0.17241379310345 0.00000000000000 0.00000000000000 0
0.16666666666667 0.00000000000000 0.00000000000000 0
0.16091954022989 0.00000000000000 0.00000000000000 0
0.15517241379310 0.00000000000000 0.00000000000000 0
0.14942528735632 0.00000000000000 0.00000000000000 0
0.14367816091954 0.00000000000000 0.00000000000000 0
0.13793103448276 0.00000000000000 0.00000000000000 0
0.13218390804598 0.00000000000000 0.00000000000000 0
0.12643678160920 0.00000000000000 0.00000000000000 0
0.12068965517241 0.00000000000000 0.00000000000000 0
0.11494252873563 0.00000000000000 0.00000000000000 0
0.10919540229885 0.00000000000000 0.00000000000000 0
0.10344827586207 0.00000000000000 0.00000000000000 0
0.09770114942529 0.00000000000000 0.00000000000000 0
0.09195402298851 0.00000000000000 0.00000000000000 0
0.08620689655172 0.00000000000000 0.00000000000000 0
0.08045977011494 0.00000000000000 0.00000000000000 0
0.07471264367816 0.00000000000000 0.00000000000000 0
0.06896551724138 0.00000000000000 0.00000000000000 0
0.06321839080460 0.00000000000000 0.00000000000000 0
0.05747126436782 0.00000000000000 0.00000000000000 0
0.05172413793103 0.00000000000000 0.00000000000000 0
0.04597701149425 0.00000000000000 0.00000000000000 0
0.04022988505747 0.00000000000000 0.00000000000000 0
0.03448275862069 0.00000000000000 0.00000000000000 0
0.02873563218391 0.00000000000000 0.00000000000000 0
0.02298850574713 0.00000000000000 0.00000000000000 0
0.01724137931034 0.00000000000000 0.00000000000000 0
0.01149425287356 0.00000000000000 0.00000000000000 0
0.00574712643678 0.00000000000000 0.00000000000000 0
0.00000000000000 0.00000000000000 0.00000000000000 0

ATOMIC_POSITIONS angstrom
C 0.0000000000 0.0000000000 10.0000000000 
C 1.2236302491 0.7064632537 10.0000000000 

