&BANDS
  prefix='graphene',
  outdir='./tmp',
  filband='bd.dat',
  lp=.true.
/
