&CONTROL
   calculation      = 'nscf'
   outdir           = './tmp'
   prefix           = 'graphene'
   pseudo_dir       = '/opt/LDA'
/
&SYSTEM
   ibrav            = 4
   ecutwfc          = 60
   ecutrho          = 480
   occupations      = 'smearing'
   degauss          = 0.1
   smearing         = 'gauss'
   assume_isolated  = '2D'
   ntyp             = 1
   nat              = 2
   nbnd             = 16
   nosym            = .true.
   celldm(1)        = 4.624652119457427
   celldm(3)        = 8.172403393454635
/
&ELECTRONS
   conv_thr         = 1e-12
/
&IONS
/
&CELL
/

ATOMIC_SPECIES
C 12.011 C.pz-n-kjpaw_psl.1.0.0.UPF

ATOMIC_POSITIONS angstrom
C 0.0000000000 0.0000000000 10.0000000000 
C 1.2236302491 0.7064632537 10.0000000000 

K_POINTS crystal
225
  0.00000000  0.00000000  0.00000000  4.444444e-03
  0.00000000  0.06666667  0.00000000  4.444444e-03
  0.00000000  0.13333333  0.00000000  4.444444e-03
  0.00000000  0.20000000  0.00000000  4.444444e-03
  0.00000000  0.26666667  0.00000000  4.444444e-03
  0.00000000  0.33333333  0.00000000  4.444444e-03
  0.00000000  0.40000000  0.00000000  4.444444e-03
  0.00000000  0.46666667  0.00000000  4.444444e-03
  0.00000000  0.53333333  0.00000000  4.444444e-03
  0.00000000  0.60000000  0.00000000  4.444444e-03
  0.00000000  0.66666667  0.00000000  4.444444e-03
  0.00000000  0.73333333  0.00000000  4.444444e-03
  0.00000000  0.80000000  0.00000000  4.444444e-03
  0.00000000  0.86666667  0.00000000  4.444444e-03
  0.00000000  0.93333333  0.00000000  4.444444e-03
  0.06666667  0.00000000  0.00000000  4.444444e-03
  0.06666667  0.06666667  0.00000000  4.444444e-03
  0.06666667  0.13333333  0.00000000  4.444444e-03
  0.06666667  0.20000000  0.00000000  4.444444e-03
  0.06666667  0.26666667  0.00000000  4.444444e-03
  0.06666667  0.33333333  0.00000000  4.444444e-03
  0.06666667  0.40000000  0.00000000  4.444444e-03
  0.06666667  0.46666667  0.00000000  4.444444e-03
  0.06666667  0.53333333  0.00000000  4.444444e-03
  0.06666667  0.60000000  0.00000000  4.444444e-03
  0.06666667  0.66666667  0.00000000  4.444444e-03
  0.06666667  0.73333333  0.00000000  4.444444e-03
  0.06666667  0.80000000  0.00000000  4.444444e-03
  0.06666667  0.86666667  0.00000000  4.444444e-03
  0.06666667  0.93333333  0.00000000  4.444444e-03
  0.13333333  0.00000000  0.00000000  4.444444e-03
  0.13333333  0.06666667  0.00000000  4.444444e-03
  0.13333333  0.13333333  0.00000000  4.444444e-03
  0.13333333  0.20000000  0.00000000  4.444444e-03
  0.13333333  0.26666667  0.00000000  4.444444e-03
  0.13333333  0.33333333  0.00000000  4.444444e-03
  0.13333333  0.40000000  0.00000000  4.444444e-03
  0.13333333  0.46666667  0.00000000  4.444444e-03
  0.13333333  0.53333333  0.00000000  4.444444e-03
  0.13333333  0.60000000  0.00000000  4.444444e-03
  0.13333333  0.66666667  0.00000000  4.444444e-03
  0.13333333  0.73333333  0.00000000  4.444444e-03
  0.13333333  0.80000000  0.00000000  4.444444e-03
  0.13333333  0.86666667  0.00000000  4.444444e-03
  0.13333333  0.93333333  0.00000000  4.444444e-03
  0.20000000  0.00000000  0.00000000  4.444444e-03
  0.20000000  0.06666667  0.00000000  4.444444e-03
  0.20000000  0.13333333  0.00000000  4.444444e-03
  0.20000000  0.20000000  0.00000000  4.444444e-03
  0.20000000  0.26666667  0.00000000  4.444444e-03
  0.20000000  0.33333333  0.00000000  4.444444e-03
  0.20000000  0.40000000  0.00000000  4.444444e-03
  0.20000000  0.46666667  0.00000000  4.444444e-03
  0.20000000  0.53333333  0.00000000  4.444444e-03
  0.20000000  0.60000000  0.00000000  4.444444e-03
  0.20000000  0.66666667  0.00000000  4.444444e-03
  0.20000000  0.73333333  0.00000000  4.444444e-03
  0.20000000  0.80000000  0.00000000  4.444444e-03
  0.20000000  0.86666667  0.00000000  4.444444e-03
  0.20000000  0.93333333  0.00000000  4.444444e-03
  0.26666667  0.00000000  0.00000000  4.444444e-03
  0.26666667  0.06666667  0.00000000  4.444444e-03
  0.26666667  0.13333333  0.00000000  4.444444e-03
  0.26666667  0.20000000  0.00000000  4.444444e-03
  0.26666667  0.26666667  0.00000000  4.444444e-03
  0.26666667  0.33333333  0.00000000  4.444444e-03
  0.26666667  0.40000000  0.00000000  4.444444e-03
  0.26666667  0.46666667  0.00000000  4.444444e-03
  0.26666667  0.53333333  0.00000000  4.444444e-03
  0.26666667  0.60000000  0.00000000  4.444444e-03
  0.26666667  0.66666667  0.00000000  4.444444e-03
  0.26666667  0.73333333  0.00000000  4.444444e-03
  0.26666667  0.80000000  0.00000000  4.444444e-03
  0.26666667  0.86666667  0.00000000  4.444444e-03
  0.26666667  0.93333333  0.00000000  4.444444e-03
  0.33333333  0.00000000  0.00000000  4.444444e-03
  0.33333333  0.06666667  0.00000000  4.444444e-03
  0.33333333  0.13333333  0.00000000  4.444444e-03
  0.33333333  0.20000000  0.00000000  4.444444e-03
  0.33333333  0.26666667  0.00000000  4.444444e-03
  0.33333333  0.33333333  0.00000000  4.444444e-03
  0.33333333  0.40000000  0.00000000  4.444444e-03
  0.33333333  0.46666667  0.00000000  4.444444e-03
  0.33333333  0.53333333  0.00000000  4.444444e-03
  0.33333333  0.60000000  0.00000000  4.444444e-03
  0.33333333  0.66666667  0.00000000  4.444444e-03
  0.33333333  0.73333333  0.00000000  4.444444e-03
  0.33333333  0.80000000  0.00000000  4.444444e-03
  0.33333333  0.86666667  0.00000000  4.444444e-03
  0.33333333  0.93333333  0.00000000  4.444444e-03
  0.40000000  0.00000000  0.00000000  4.444444e-03
  0.40000000  0.06666667  0.00000000  4.444444e-03
  0.40000000  0.13333333  0.00000000  4.444444e-03
  0.40000000  0.20000000  0.00000000  4.444444e-03
  0.40000000  0.26666667  0.00000000  4.444444e-03
  0.40000000  0.33333333  0.00000000  4.444444e-03
  0.40000000  0.40000000  0.00000000  4.444444e-03
  0.40000000  0.46666667  0.00000000  4.444444e-03
  0.40000000  0.53333333  0.00000000  4.444444e-03
  0.40000000  0.60000000  0.00000000  4.444444e-03
  0.40000000  0.66666667  0.00000000  4.444444e-03
  0.40000000  0.73333333  0.00000000  4.444444e-03
  0.40000000  0.80000000  0.00000000  4.444444e-03
  0.40000000  0.86666667  0.00000000  4.444444e-03
  0.40000000  0.93333333  0.00000000  4.444444e-03
  0.46666667  0.00000000  0.00000000  4.444444e-03
  0.46666667  0.06666667  0.00000000  4.444444e-03
  0.46666667  0.13333333  0.00000000  4.444444e-03
  0.46666667  0.20000000  0.00000000  4.444444e-03
  0.46666667  0.26666667  0.00000000  4.444444e-03
  0.46666667  0.33333333  0.00000000  4.444444e-03
  0.46666667  0.40000000  0.00000000  4.444444e-03
  0.46666667  0.46666667  0.00000000  4.444444e-03
  0.46666667  0.53333333  0.00000000  4.444444e-03
  0.46666667  0.60000000  0.00000000  4.444444e-03
  0.46666667  0.66666667  0.00000000  4.444444e-03
  0.46666667  0.73333333  0.00000000  4.444444e-03
  0.46666667  0.80000000  0.00000000  4.444444e-03
  0.46666667  0.86666667  0.00000000  4.444444e-03
  0.46666667  0.93333333  0.00000000  4.444444e-03
  0.53333333  0.00000000  0.00000000  4.444444e-03
  0.53333333  0.06666667  0.00000000  4.444444e-03
  0.53333333  0.13333333  0.00000000  4.444444e-03
  0.53333333  0.20000000  0.00000000  4.444444e-03
  0.53333333  0.26666667  0.00000000  4.444444e-03
  0.53333333  0.33333333  0.00000000  4.444444e-03
  0.53333333  0.40000000  0.00000000  4.444444e-03
  0.53333333  0.46666667  0.00000000  4.444444e-03
  0.53333333  0.53333333  0.00000000  4.444444e-03
  0.53333333  0.60000000  0.00000000  4.444444e-03
  0.53333333  0.66666667  0.00000000  4.444444e-03
  0.53333333  0.73333333  0.00000000  4.444444e-03
  0.53333333  0.80000000  0.00000000  4.444444e-03
  0.53333333  0.86666667  0.00000000  4.444444e-03
  0.53333333  0.93333333  0.00000000  4.444444e-03
  0.60000000  0.00000000  0.00000000  4.444444e-03
  0.60000000  0.06666667  0.00000000  4.444444e-03
  0.60000000  0.13333333  0.00000000  4.444444e-03
  0.60000000  0.20000000  0.00000000  4.444444e-03
  0.60000000  0.26666667  0.00000000  4.444444e-03
  0.60000000  0.33333333  0.00000000  4.444444e-03
  0.60000000  0.40000000  0.00000000  4.444444e-03
  0.60000000  0.46666667  0.00000000  4.444444e-03
  0.60000000  0.53333333  0.00000000  4.444444e-03
  0.60000000  0.60000000  0.00000000  4.444444e-03
  0.60000000  0.66666667  0.00000000  4.444444e-03
  0.60000000  0.73333333  0.00000000  4.444444e-03
  0.60000000  0.80000000  0.00000000  4.444444e-03
  0.60000000  0.86666667  0.00000000  4.444444e-03
  0.60000000  0.93333333  0.00000000  4.444444e-03
  0.66666667  0.00000000  0.00000000  4.444444e-03
  0.66666667  0.06666667  0.00000000  4.444444e-03
  0.66666667  0.13333333  0.00000000  4.444444e-03
  0.66666667  0.20000000  0.00000000  4.444444e-03
  0.66666667  0.26666667  0.00000000  4.444444e-03
  0.66666667  0.33333333  0.00000000  4.444444e-03
  0.66666667  0.40000000  0.00000000  4.444444e-03
  0.66666667  0.46666667  0.00000000  4.444444e-03
  0.66666667  0.53333333  0.00000000  4.444444e-03
  0.66666667  0.60000000  0.00000000  4.444444e-03
  0.66666667  0.66666667  0.00000000  4.444444e-03
  0.66666667  0.73333333  0.00000000  4.444444e-03
  0.66666667  0.80000000  0.00000000  4.444444e-03
  0.66666667  0.86666667  0.00000000  4.444444e-03
  0.66666667  0.93333333  0.00000000  4.444444e-03
  0.73333333  0.00000000  0.00000000  4.444444e-03
  0.73333333  0.06666667  0.00000000  4.444444e-03
  0.73333333  0.13333333  0.00000000  4.444444e-03
  0.73333333  0.20000000  0.00000000  4.444444e-03
  0.73333333  0.26666667  0.00000000  4.444444e-03
  0.73333333  0.33333333  0.00000000  4.444444e-03
  0.73333333  0.40000000  0.00000000  4.444444e-03
  0.73333333  0.46666667  0.00000000  4.444444e-03
  0.73333333  0.53333333  0.00000000  4.444444e-03
  0.73333333  0.60000000  0.00000000  4.444444e-03
  0.73333333  0.66666667  0.00000000  4.444444e-03
  0.73333333  0.73333333  0.00000000  4.444444e-03
  0.73333333  0.80000000  0.00000000  4.444444e-03
  0.73333333  0.86666667  0.00000000  4.444444e-03
  0.73333333  0.93333333  0.00000000  4.444444e-03
  0.80000000  0.00000000  0.00000000  4.444444e-03
  0.80000000  0.06666667  0.00000000  4.444444e-03
  0.80000000  0.13333333  0.00000000  4.444444e-03
  0.80000000  0.20000000  0.00000000  4.444444e-03
  0.80000000  0.26666667  0.00000000  4.444444e-03
  0.80000000  0.33333333  0.00000000  4.444444e-03
  0.80000000  0.40000000  0.00000000  4.444444e-03
  0.80000000  0.46666667  0.00000000  4.444444e-03
  0.80000000  0.53333333  0.00000000  4.444444e-03
  0.80000000  0.60000000  0.00000000  4.444444e-03
  0.80000000  0.66666667  0.00000000  4.444444e-03
  0.80000000  0.73333333  0.00000000  4.444444e-03
  0.80000000  0.80000000  0.00000000  4.444444e-03
  0.80000000  0.86666667  0.00000000  4.444444e-03
  0.80000000  0.93333333  0.00000000  4.444444e-03
  0.86666667  0.00000000  0.00000000  4.444444e-03
  0.86666667  0.06666667  0.00000000  4.444444e-03
  0.86666667  0.13333333  0.00000000  4.444444e-03
  0.86666667  0.20000000  0.00000000  4.444444e-03
  0.86666667  0.26666667  0.00000000  4.444444e-03
  0.86666667  0.33333333  0.00000000  4.444444e-03
  0.86666667  0.40000000  0.00000000  4.444444e-03
  0.86666667  0.46666667  0.00000000  4.444444e-03
  0.86666667  0.53333333  0.00000000  4.444444e-03
  0.86666667  0.60000000  0.00000000  4.444444e-03
  0.86666667  0.66666667  0.00000000  4.444444e-03
  0.86666667  0.73333333  0.00000000  4.444444e-03
  0.86666667  0.80000000  0.00000000  4.444444e-03
  0.86666667  0.86666667  0.00000000  4.444444e-03
  0.86666667  0.93333333  0.00000000  4.444444e-03
  0.93333333  0.00000000  0.00000000  4.444444e-03
  0.93333333  0.06666667  0.00000000  4.444444e-03
  0.93333333  0.13333333  0.00000000  4.444444e-03
  0.93333333  0.20000000  0.00000000  4.444444e-03
  0.93333333  0.26666667  0.00000000  4.444444e-03
  0.93333333  0.33333333  0.00000000  4.444444e-03
  0.93333333  0.40000000  0.00000000  4.444444e-03
  0.93333333  0.46666667  0.00000000  4.444444e-03
  0.93333333  0.53333333  0.00000000  4.444444e-03
  0.93333333  0.60000000  0.00000000  4.444444e-03
  0.93333333  0.66666667  0.00000000  4.444444e-03
  0.93333333  0.73333333  0.00000000  4.444444e-03
  0.93333333  0.80000000  0.00000000  4.444444e-03
  0.93333333  0.86666667  0.00000000  4.444444e-03
  0.93333333  0.93333333  0.00000000  4.444444e-03
