&CONTROL
   calculation      = 'bands'
   verbosity        = 'high'
   outdir           = './tmp'
   prefix           = 'graphite'
   pseudo_dir       = '/opt/LDA'
/
&SYSTEM
   ibrav            = 4
   nbnd             = 16
   ecutwfc          = 60
   ecutrho          = 480
   occupations      = 'smearing'
   degauss          = 0.1
   smearing         = 'gauss'
   ntyp             = 1
   nat              = 4
   celldm(1)        = 4.6251839171128974
   celldm(3)        = 2.717335254050805
/
&ELECTRONS
   conv_thr         = 1e-12
/
&IONS
/
&CELL
/

ATOMIC_SPECIES
C 12.011 C.pz-n-kjpaw_psl.1.0.0.UPF

K_POINTS crystal_b
503
0.00000000000000 0.00000000000000 0.00000000000000 0
0.00336700336700 0.00336700336700 0.00000000000000 0
0.00673400673401 0.00673400673401 0.00000000000000 0
0.01010101010101 0.01010101010101 0.00000000000000 0
0.01346801346801 0.01346801346801 0.00000000000000 0
0.01683501683502 0.01683501683502 0.00000000000000 0
0.02020202020202 0.02020202020202 0.00000000000000 0
0.02356902356902 0.02356902356902 0.00000000000000 0
0.02693602693603 0.02693602693603 0.00000000000000 0
0.03030303030303 0.03030303030303 0.00000000000000 0
0.03367003367003 0.03367003367003 0.00000000000000 0
0.03703703703704 0.03703703703704 0.00000000000000 0
0.04040404040404 0.04040404040404 0.00000000000000 0
0.04377104377104 0.04377104377104 0.00000000000000 0
0.04713804713805 0.04713804713805 0.00000000000000 0
0.05050505050505 0.05050505050505 0.00000000000000 0
0.05387205387205 0.05387205387205 0.00000000000000 0
0.05723905723906 0.05723905723906 0.00000000000000 0
0.06060606060606 0.06060606060606 0.00000000000000 0
0.06397306397306 0.06397306397306 0.00000000000000 0
0.06734006734007 0.06734006734007 0.00000000000000 0
0.07070707070707 0.07070707070707 0.00000000000000 0
0.07407407407407 0.07407407407407 0.00000000000000 0
0.07744107744108 0.07744107744108 0.00000000000000 0
0.08080808080808 0.08080808080808 0.00000000000000 0
0.08417508417508 0.08417508417508 0.00000000000000 0
0.08754208754209 0.08754208754209 0.00000000000000 0
0.09090909090909 0.09090909090909 0.00000000000000 0
0.09427609427609 0.09427609427609 0.00000000000000 0
0.09764309764310 0.09764309764310 0.00000000000000 0
0.10101010101010 0.10101010101010 0.00000000000000 0
0.10437710437710 0.10437710437710 0.00000000000000 0
0.10774410774411 0.10774410774411 0.00000000000000 0
0.11111111111111 0.11111111111111 0.00000000000000 0
0.11447811447811 0.11447811447811 0.00000000000000 0
0.11784511784512 0.11784511784512 0.00000000000000 0
0.12121212121212 0.12121212121212 0.00000000000000 0
0.12457912457912 0.12457912457912 0.00000000000000 0
0.12794612794613 0.12794612794613 0.00000000000000 0
0.13131313131313 0.13131313131313 0.00000000000000 0
0.13468013468013 0.13468013468013 0.00000000000000 0
0.13804713804714 0.13804713804714 0.00000000000000 0
0.14141414141414 0.14141414141414 0.00000000000000 0
0.14478114478114 0.14478114478114 0.00000000000000 0
0.14814814814815 0.14814814814815 0.00000000000000 0
0.15151515151515 0.15151515151515 0.00000000000000 0
0.15488215488215 0.15488215488215 0.00000000000000 0
0.15824915824916 0.15824915824916 0.00000000000000 0
0.16161616161616 0.16161616161616 0.00000000000000 0
0.16498316498316 0.16498316498316 0.00000000000000 0
0.16835016835017 0.16835016835017 0.00000000000000 0
0.17171717171717 0.17171717171717 0.00000000000000 0
0.17508417508418 0.17508417508418 0.00000000000000 0
0.17845117845118 0.17845117845118 0.00000000000000 0
0.18181818181818 0.18181818181818 0.00000000000000 0
0.18518518518519 0.18518518518519 0.00000000000000 0
0.18855218855219 0.18855218855219 0.00000000000000 0
0.19191919191919 0.19191919191919 0.00000000000000 0
0.19528619528620 0.19528619528620 0.00000000000000 0
0.19865319865320 0.19865319865320 0.00000000000000 0
0.20202020202020 0.20202020202020 0.00000000000000 0
0.20538720538721 0.20538720538721 0.00000000000000 0
0.20875420875421 0.20875420875421 0.00000000000000 0
0.21212121212121 0.21212121212121 0.00000000000000 0
0.21548821548822 0.21548821548822 0.00000000000000 0
0.21885521885522 0.21885521885522 0.00000000000000 0
0.22222222222222 0.22222222222222 0.00000000000000 0
0.22558922558923 0.22558922558923 0.00000000000000 0
0.22895622895623 0.22895622895623 0.00000000000000 0
0.23232323232323 0.23232323232323 0.00000000000000 0
0.23569023569024 0.23569023569024 0.00000000000000 0
0.23905723905724 0.23905723905724 0.00000000000000 0
0.24242424242424 0.24242424242424 0.00000000000000 0
0.24579124579125 0.24579124579125 0.00000000000000 0
0.24915824915825 0.24915824915825 0.00000000000000 0
0.25252525252525 0.25252525252525 0.00000000000000 0
0.25589225589226 0.25589225589226 0.00000000000000 0
0.25925925925926 0.25925925925926 0.00000000000000 0
0.26262626262626 0.26262626262626 0.00000000000000 0
0.26599326599327 0.26599326599327 0.00000000000000 0
0.26936026936027 0.26936026936027 0.00000000000000 0
0.27272727272727 0.27272727272727 0.00000000000000 0
0.27609427609428 0.27609427609428 0.00000000000000 0
0.27946127946128 0.27946127946128 0.00000000000000 0
0.28282828282828 0.28282828282828 0.00000000000000 0
0.28619528619529 0.28619528619529 0.00000000000000 0
0.28956228956229 0.28956228956229 0.00000000000000 0
0.29292929292929 0.29292929292929 0.00000000000000 0
0.29629629629630 0.29629629629630 0.00000000000000 0
0.29966329966330 0.29966329966330 0.00000000000000 0
0.30303030303030 0.30303030303030 0.00000000000000 0
0.30639730639731 0.30639730639731 0.00000000000000 0
0.30976430976431 0.30976430976431 0.00000000000000 0
0.31313131313131 0.31313131313131 0.00000000000000 0
0.31649831649832 0.31649831649832 0.00000000000000 0
0.31986531986532 0.31986531986532 0.00000000000000 0
0.32323232323232 0.32323232323232 0.00000000000000 0
0.32659932659933 0.32659932659933 0.00000000000000 0
0.32996632996633 0.32996632996633 0.00000000000000 0
0.33333333333333 0.33333333333333 0.00000000000000 0
0.33673469387755 0.32653061224490 0.00000000000000 0
0.34013605442177 0.31972789115646 0.00000000000000 0
0.34353741496599 0.31292517006803 0.00000000000000 0
0.34693877551020 0.30612244897959 0.00000000000000 0
0.35034013605442 0.29931972789116 0.00000000000000 0
0.35374149659864 0.29251700680272 0.00000000000000 0
0.35714285714286 0.28571428571429 0.00000000000000 0
0.36054421768707 0.27891156462585 0.00000000000000 0
0.36394557823129 0.27210884353741 0.00000000000000 0
0.36734693877551 0.26530612244898 0.00000000000000 0
0.37074829931973 0.25850340136054 0.00000000000000 0
0.37414965986395 0.25170068027211 0.00000000000000 0
0.37755102040816 0.24489795918367 0.00000000000000 0
0.38095238095238 0.23809523809524 0.00000000000000 0
0.38435374149660 0.23129251700680 0.00000000000000 0
0.38775510204082 0.22448979591837 0.00000000000000 0
0.39115646258503 0.21768707482993 0.00000000000000 0
0.39455782312925 0.21088435374150 0.00000000000000 0
0.39795918367347 0.20408163265306 0.00000000000000 0
0.40136054421769 0.19727891156463 0.00000000000000 0
0.40476190476190 0.19047619047619 0.00000000000000 0
0.40816326530612 0.18367346938776 0.00000000000000 0
0.41156462585034 0.17687074829932 0.00000000000000 0
0.41496598639456 0.17006802721088 0.00000000000000 0
0.41836734693878 0.16326530612245 0.00000000000000 0
0.42176870748299 0.15646258503401 0.00000000000000 0
0.42517006802721 0.14965986394558 0.00000000000000 0
0.42857142857143 0.14285714285714 0.00000000000000 0
0.43197278911565 0.13605442176871 0.00000000000000 0
0.43537414965986 0.12925170068027 0.00000000000000 0
0.43877551020408 0.12244897959184 0.00000000000000 0
0.44217687074830 0.11564625850340 0.00000000000000 0
0.44557823129252 0.10884353741497 0.00000000000000 0
0.44897959183673 0.10204081632653 0.00000000000000 0
0.45238095238095 0.09523809523810 0.00000000000000 0
0.45578231292517 0.08843537414966 0.00000000000000 0
0.45918367346939 0.08163265306122 0.00000000000000 0
0.46258503401361 0.07482993197279 0.00000000000000 0
0.46598639455782 0.06802721088435 0.00000000000000 0
0.46938775510204 0.06122448979592 0.00000000000000 0
0.47278911564626 0.05442176870748 0.00000000000000 0
0.47619047619048 0.04761904761905 0.00000000000000 0
0.47959183673469 0.04081632653061 0.00000000000000 0
0.48299319727891 0.03401360544218 0.00000000000000 0
0.48639455782313 0.02721088435374 0.00000000000000 0
0.48979591836735 0.02040816326531 0.00000000000000 0
0.49319727891156 0.01360544217687 0.00000000000000 0
0.49659863945578 0.00680272108844 0.00000000000000 0
0.50000000000000 0.00000000000000 0.00000000000000 0
0.49425287356322 0.00000000000000 0.00000000000000 0
0.48850574712644 0.00000000000000 0.00000000000000 0
0.48275862068966 0.00000000000000 0.00000000000000 0
0.47701149425287 0.00000000000000 0.00000000000000 0
0.47126436781609 0.00000000000000 0.00000000000000 0
0.46551724137931 0.00000000000000 0.00000000000000 0
0.45977011494253 0.00000000000000 0.00000000000000 0
0.45402298850575 0.00000000000000 0.00000000000000 0
0.44827586206897 0.00000000000000 0.00000000000000 0
0.44252873563218 0.00000000000000 0.00000000000000 0
0.43678160919540 0.00000000000000 0.00000000000000 0
0.43103448275862 0.00000000000000 0.00000000000000 0
0.42528735632184 0.00000000000000 0.00000000000000 0
0.41954022988506 0.00000000000000 0.00000000000000 0
0.41379310344828 0.00000000000000 0.00000000000000 0
0.40804597701149 0.00000000000000 0.00000000000000 0
0.40229885057471 0.00000000000000 0.00000000000000 0
0.39655172413793 0.00000000000000 0.00000000000000 0
0.39080459770115 0.00000000000000 0.00000000000000 0
0.38505747126437 0.00000000000000 0.00000000000000 0
0.37931034482759 0.00000000000000 0.00000000000000 0
0.37356321839080 0.00000000000000 0.00000000000000 0
0.36781609195402 0.00000000000000 0.00000000000000 0
0.36206896551724 0.00000000000000 0.00000000000000 0
0.35632183908046 0.00000000000000 0.00000000000000 0
0.35057471264368 0.00000000000000 0.00000000000000 0
0.34482758620690 0.00000000000000 0.00000000000000 0
0.33908045977011 0.00000000000000 0.00000000000000 0
0.33333333333333 0.00000000000000 0.00000000000000 0
0.32758620689655 0.00000000000000 0.00000000000000 0
0.32183908045977 0.00000000000000 0.00000000000000 0
0.31609195402299 0.00000000000000 0.00000000000000 0
0.31034482758621 0.00000000000000 0.00000000000000 0
0.30459770114943 0.00000000000000 0.00000000000000 0
0.29885057471264 0.00000000000000 0.00000000000000 0
0.29310344827586 0.00000000000000 0.00000000000000 0
0.28735632183908 0.00000000000000 0.00000000000000 0
0.28160919540230 0.00000000000000 0.00000000000000 0
0.27586206896552 0.00000000000000 0.00000000000000 0
0.27011494252874 0.00000000000000 0.00000000000000 0
0.26436781609195 0.00000000000000 0.00000000000000 0
0.25862068965517 0.00000000000000 0.00000000000000 0
0.25287356321839 0.00000000000000 0.00000000000000 0
0.24712643678161 0.00000000000000 0.00000000000000 0
0.24137931034483 0.00000000000000 0.00000000000000 0
0.23563218390805 0.00000000000000 0.00000000000000 0
0.22988505747126 0.00000000000000 0.00000000000000 0
0.22413793103448 0.00000000000000 0.00000000000000 0
0.21839080459770 0.00000000000000 0.00000000000000 0
0.21264367816092 0.00000000000000 0.00000000000000 0
0.20689655172414 0.00000000000000 0.00000000000000 0
0.20114942528736 0.00000000000000 0.00000000000000 0
0.19540229885057 0.00000000000000 0.00000000000000 0
0.18965517241379 0.00000000000000 0.00000000000000 0
0.18390804597701 0.00000000000000 0.00000000000000 0
0.17816091954023 0.00000000000000 0.00000000000000 0
0.17241379310345 0.00000000000000 0.00000000000000 0
0.16666666666667 0.00000000000000 0.00000000000000 0
0.16091954022989 0.00000000000000 0.00000000000000 0
0.15517241379310 0.00000000000000 0.00000000000000 0
0.14942528735632 0.00000000000000 0.00000000000000 0
0.14367816091954 0.00000000000000 0.00000000000000 0
0.13793103448276 0.00000000000000 0.00000000000000 0
0.13218390804598 0.00000000000000 0.00000000000000 0
0.12643678160920 0.00000000000000 0.00000000000000 0
0.12068965517241 0.00000000000000 0.00000000000000 0
0.11494252873563 0.00000000000000 0.00000000000000 0
0.10919540229885 0.00000000000000 0.00000000000000 0
0.10344827586207 0.00000000000000 0.00000000000000 0
0.09770114942529 0.00000000000000 0.00000000000000 0
0.09195402298851 0.00000000000000 0.00000000000000 0
0.08620689655172 0.00000000000000 0.00000000000000 0
0.08045977011494 0.00000000000000 0.00000000000000 0
0.07471264367816 0.00000000000000 0.00000000000000 0
0.06896551724138 0.00000000000000 0.00000000000000 0
0.06321839080460 0.00000000000000 0.00000000000000 0
0.05747126436782 0.00000000000000 0.00000000000000 0
0.05172413793103 0.00000000000000 0.00000000000000 0
0.04597701149425 0.00000000000000 0.00000000000000 0
0.04022988505747 0.00000000000000 0.00000000000000 0
0.03448275862069 0.00000000000000 0.00000000000000 0
0.02873563218391 0.00000000000000 0.00000000000000 0
0.02298850574713 0.00000000000000 0.00000000000000 0
0.01724137931034 0.00000000000000 0.00000000000000 0
0.01149425287356 0.00000000000000 0.00000000000000 0
0.00574712643678 0.00000000000000 0.00000000000000 0
0.00000000000000 0.00000000000000 0.00000000000000 0
0.00000000000000 0.00000000000000 0.01851851851852 0
0.00000000000000 0.00000000000000 0.03703703703704 0
0.00000000000000 0.00000000000000 0.05555555555556 0
0.00000000000000 0.00000000000000 0.07407407407407 0
0.00000000000000 0.00000000000000 0.09259259259259 0
0.00000000000000 0.00000000000000 0.11111111111111 0
0.00000000000000 0.00000000000000 0.12962962962963 0
0.00000000000000 0.00000000000000 0.14814814814815 0
0.00000000000000 0.00000000000000 0.16666666666667 0
0.00000000000000 0.00000000000000 0.18518518518519 0
0.00000000000000 0.00000000000000 0.20370370370370 0
0.00000000000000 0.00000000000000 0.22222222222222 0
0.00000000000000 0.00000000000000 0.24074074074074 0
0.00000000000000 0.00000000000000 0.25925925925926 0
0.00000000000000 0.00000000000000 0.27777777777778 0
0.00000000000000 0.00000000000000 0.29629629629630 0
0.00000000000000 0.00000000000000 0.31481481481481 0
0.00000000000000 0.00000000000000 0.33333333333333 0
0.00000000000000 0.00000000000000 0.35185185185185 0
0.00000000000000 0.00000000000000 0.37037037037037 0
0.00000000000000 0.00000000000000 0.38888888888889 0
0.00000000000000 0.00000000000000 0.40740740740741 0
0.00000000000000 0.00000000000000 0.42592592592593 0
0.00000000000000 0.00000000000000 0.44444444444444 0
0.00000000000000 0.00000000000000 0.46296296296296 0
0.00000000000000 0.00000000000000 0.48148148148148 0
0.00000000000000 0.00000000000000 0.50000000000000 0
0.00330033003300 0.00330033003300 0.50000000000000 0
0.00660066006601 0.00660066006601 0.50000000000000 0
0.00990099009901 0.00990099009901 0.50000000000000 0
0.01320132013201 0.01320132013201 0.50000000000000 0
0.01650165016502 0.01650165016502 0.50000000000000 0
0.01980198019802 0.01980198019802 0.50000000000000 0
0.02310231023102 0.02310231023102 0.50000000000000 0
0.02640264026403 0.02640264026403 0.50000000000000 0
0.02970297029703 0.02970297029703 0.50000000000000 0
0.03300330033003 0.03300330033003 0.50000000000000 0
0.03630363036304 0.03630363036304 0.50000000000000 0
0.03960396039604 0.03960396039604 0.50000000000000 0
0.04290429042904 0.04290429042904 0.50000000000000 0
0.04620462046205 0.04620462046205 0.50000000000000 0
0.04950495049505 0.04950495049505 0.50000000000000 0
0.05280528052805 0.05280528052805 0.50000000000000 0
0.05610561056106 0.05610561056106 0.50000000000000 0
0.05940594059406 0.05940594059406 0.50000000000000 0
0.06270627062706 0.06270627062706 0.50000000000000 0
0.06600660066007 0.06600660066007 0.50000000000000 0
0.06930693069307 0.06930693069307 0.50000000000000 0
0.07260726072607 0.07260726072607 0.50000000000000 0
0.07590759075908 0.07590759075908 0.50000000000000 0
0.07920792079208 0.07920792079208 0.50000000000000 0
0.08250825082508 0.08250825082508 0.50000000000000 0
0.08580858085809 0.08580858085809 0.50000000000000 0
0.08910891089109 0.08910891089109 0.50000000000000 0
0.09240924092409 0.09240924092409 0.50000000000000 0
0.09570957095710 0.09570957095710 0.50000000000000 0
0.09900990099010 0.09900990099010 0.50000000000000 0
0.10231023102310 0.10231023102310 0.50000000000000 0
0.10561056105611 0.10561056105611 0.50000000000000 0
0.10891089108911 0.10891089108911 0.50000000000000 0
0.11221122112211 0.11221122112211 0.50000000000000 0
0.11551155115512 0.11551155115512 0.50000000000000 0
0.11881188118812 0.11881188118812 0.50000000000000 0
0.12211221122112 0.12211221122112 0.50000000000000 0
0.12541254125413 0.12541254125413 0.50000000000000 0
0.12871287128713 0.12871287128713 0.50000000000000 0
0.13201320132013 0.13201320132013 0.50000000000000 0
0.13531353135314 0.13531353135314 0.50000000000000 0
0.13861386138614 0.13861386138614 0.50000000000000 0
0.14191419141914 0.14191419141914 0.50000000000000 0
0.14521452145215 0.14521452145215 0.50000000000000 0
0.14851485148515 0.14851485148515 0.50000000000000 0
0.15181518151815 0.15181518151815 0.50000000000000 0
0.15511551155116 0.15511551155116 0.50000000000000 0
0.15841584158416 0.15841584158416 0.50000000000000 0
0.16171617161716 0.16171617161716 0.50000000000000 0
0.16501650165017 0.16501650165017 0.50000000000000 0
0.16831683168317 0.16831683168317 0.50000000000000 0
0.17161716171617 0.17161716171617 0.50000000000000 0
0.17491749174917 0.17491749174917 0.50000000000000 0
0.17821782178218 0.17821782178218 0.50000000000000 0
0.18151815181518 0.18151815181518 0.50000000000000 0
0.18481848184818 0.18481848184818 0.50000000000000 0
0.18811881188119 0.18811881188119 0.50000000000000 0
0.19141914191419 0.19141914191419 0.50000000000000 0
0.19471947194719 0.19471947194719 0.50000000000000 0
0.19801980198020 0.19801980198020 0.50000000000000 0
0.20132013201320 0.20132013201320 0.50000000000000 0
0.20462046204620 0.20462046204620 0.50000000000000 0
0.20792079207921 0.20792079207921 0.50000000000000 0
0.21122112211221 0.21122112211221 0.50000000000000 0
0.21452145214521 0.21452145214521 0.50000000000000 0
0.21782178217822 0.21782178217822 0.50000000000000 0
0.22112211221122 0.22112211221122 0.50000000000000 0
0.22442244224422 0.22442244224422 0.50000000000000 0
0.22772277227723 0.22772277227723 0.50000000000000 0
0.23102310231023 0.23102310231023 0.50000000000000 0
0.23432343234323 0.23432343234323 0.50000000000000 0
0.23762376237624 0.23762376237624 0.50000000000000 0
0.24092409240924 0.24092409240924 0.50000000000000 0
0.24422442244224 0.24422442244224 0.50000000000000 0
0.24752475247525 0.24752475247525 0.50000000000000 0
0.25082508250825 0.25082508250825 0.50000000000000 0
0.25412541254125 0.25412541254125 0.50000000000000 0
0.25742574257426 0.25742574257426 0.50000000000000 0
0.26072607260726 0.26072607260726 0.50000000000000 0
0.26402640264026 0.26402640264026 0.50000000000000 0
0.26732673267327 0.26732673267327 0.50000000000000 0
0.27062706270627 0.27062706270627 0.50000000000000 0
0.27392739273927 0.27392739273927 0.50000000000000 0
0.27722772277228 0.27722772277228 0.50000000000000 0
0.28052805280528 0.28052805280528 0.50000000000000 0
0.28382838283828 0.28382838283828 0.50000000000000 0
0.28712871287129 0.28712871287129 0.50000000000000 0
0.29042904290429 0.29042904290429 0.50000000000000 0
0.29372937293729 0.29372937293729 0.50000000000000 0
0.29702970297030 0.29702970297030 0.50000000000000 0
0.30033003300330 0.30033003300330 0.50000000000000 0
0.30363036303630 0.30363036303630 0.50000000000000 0
0.30693069306931 0.30693069306931 0.50000000000000 0
0.31023102310231 0.31023102310231 0.50000000000000 0
0.31353135313531 0.31353135313531 0.50000000000000 0
0.31683168316832 0.31683168316832 0.50000000000000 0
0.32013201320132 0.32013201320132 0.50000000000000 0
0.32343234323432 0.32343234323432 0.50000000000000 0
0.32673267326733 0.32673267326733 0.50000000000000 0
0.33003300330033 0.33003300330033 0.50000000000000 0
0.33333333333333 0.33333333333333 0.50000000000000 0
0.33666666666667 0.32666666666667 0.50000000000000 0
0.34000000000000 0.32000000000000 0.50000000000000 0
0.34333333333333 0.31333333333333 0.50000000000000 0
0.34666666666667 0.30666666666667 0.50000000000000 0
0.35000000000000 0.30000000000000 0.50000000000000 0
0.35333333333333 0.29333333333333 0.50000000000000 0
0.35666666666667 0.28666666666667 0.50000000000000 0
0.36000000000000 0.28000000000000 0.50000000000000 0
0.36333333333333 0.27333333333333 0.50000000000000 0
0.36666666666667 0.26666666666667 0.50000000000000 0
0.37000000000000 0.26000000000000 0.50000000000000 0
0.37333333333333 0.25333333333333 0.50000000000000 0
0.37666666666667 0.24666666666667 0.50000000000000 0
0.38000000000000 0.24000000000000 0.50000000000000 0
0.38333333333333 0.23333333333333 0.50000000000000 0
0.38666666666667 0.22666666666667 0.50000000000000 0
0.39000000000000 0.22000000000000 0.50000000000000 0
0.39333333333333 0.21333333333333 0.50000000000000 0
0.39666666666667 0.20666666666667 0.50000000000000 0
0.40000000000000 0.20000000000000 0.50000000000000 0
0.40333333333333 0.19333333333333 0.50000000000000 0
0.40666666666667 0.18666666666667 0.50000000000000 0
0.41000000000000 0.18000000000000 0.50000000000000 0
0.41333333333333 0.17333333333333 0.50000000000000 0
0.41666666666667 0.16666666666667 0.50000000000000 0
0.42000000000000 0.16000000000000 0.50000000000000 0
0.42333333333333 0.15333333333333 0.50000000000000 0
0.42666666666667 0.14666666666667 0.50000000000000 0
0.43000000000000 0.14000000000000 0.50000000000000 0
0.43333333333333 0.13333333333333 0.50000000000000 0
0.43666666666667 0.12666666666667 0.50000000000000 0
0.44000000000000 0.12000000000000 0.50000000000000 0
0.44333333333333 0.11333333333333 0.50000000000000 0
0.44666666666667 0.10666666666667 0.50000000000000 0
0.45000000000000 0.10000000000000 0.50000000000000 0
0.45333333333333 0.09333333333333 0.50000000000000 0
0.45666666666667 0.08666666666667 0.50000000000000 0
0.46000000000000 0.08000000000000 0.50000000000000 0
0.46333333333333 0.07333333333333 0.50000000000000 0
0.46666666666667 0.06666666666667 0.50000000000000 0
0.47000000000000 0.06000000000000 0.50000000000000 0
0.47333333333333 0.05333333333333 0.50000000000000 0
0.47666666666667 0.04666666666667 0.50000000000000 0
0.48000000000000 0.04000000000000 0.50000000000000 0
0.48333333333333 0.03333333333333 0.50000000000000 0
0.48666666666667 0.02666666666667 0.50000000000000 0
0.49000000000000 0.02000000000000 0.50000000000000 0
0.49333333333333 0.01333333333333 0.50000000000000 0
0.49666666666667 0.00666666666667 0.50000000000000 0
0.50000000000000 0.00000000000000 0.50000000000000 0
0.49438202247191 0.00000000000000 0.50000000000000 0
0.48876404494382 0.00000000000000 0.50000000000000 0
0.48314606741573 0.00000000000000 0.50000000000000 0
0.47752808988764 0.00000000000000 0.50000000000000 0
0.47191011235955 0.00000000000000 0.50000000000000 0
0.46629213483146 0.00000000000000 0.50000000000000 0
0.46067415730337 0.00000000000000 0.50000000000000 0
0.45505617977528 0.00000000000000 0.50000000000000 0
0.44943820224719 0.00000000000000 0.50000000000000 0
0.44382022471910 0.00000000000000 0.50000000000000 0
0.43820224719101 0.00000000000000 0.50000000000000 0
0.43258426966292 0.00000000000000 0.50000000000000 0
0.42696629213483 0.00000000000000 0.50000000000000 0
0.42134831460674 0.00000000000000 0.50000000000000 0
0.41573033707865 0.00000000000000 0.50000000000000 0
0.41011235955056 0.00000000000000 0.50000000000000 0
0.40449438202247 0.00000000000000 0.50000000000000 0
0.39887640449438 0.00000000000000 0.50000000000000 0
0.39325842696629 0.00000000000000 0.50000000000000 0
0.38764044943820 0.00000000000000 0.50000000000000 0
0.38202247191011 0.00000000000000 0.50000000000000 0
0.37640449438202 0.00000000000000 0.50000000000000 0
0.37078651685393 0.00000000000000 0.50000000000000 0
0.36516853932584 0.00000000000000 0.50000000000000 0
0.35955056179775 0.00000000000000 0.50000000000000 0
0.35393258426966 0.00000000000000 0.50000000000000 0
0.34831460674157 0.00000000000000 0.50000000000000 0
0.34269662921348 0.00000000000000 0.50000000000000 0
0.33707865168539 0.00000000000000 0.50000000000000 0
0.33146067415730 0.00000000000000 0.50000000000000 0
0.32584269662921 0.00000000000000 0.50000000000000 0
0.32022471910112 0.00000000000000 0.50000000000000 0
0.31460674157303 0.00000000000000 0.50000000000000 0
0.30898876404494 0.00000000000000 0.50000000000000 0
0.30337078651685 0.00000000000000 0.50000000000000 0
0.29775280898876 0.00000000000000 0.50000000000000 0
0.29213483146067 0.00000000000000 0.50000000000000 0
0.28651685393258 0.00000000000000 0.50000000000000 0
0.28089887640449 0.00000000000000 0.50000000000000 0
0.27528089887640 0.00000000000000 0.50000000000000 0
0.26966292134831 0.00000000000000 0.50000000000000 0
0.26404494382022 0.00000000000000 0.50000000000000 0
0.25842696629213 0.00000000000000 0.50000000000000 0
0.25280898876404 0.00000000000000 0.50000000000000 0
0.24719101123596 0.00000000000000 0.50000000000000 0
0.24157303370787 0.00000000000000 0.50000000000000 0
0.23595505617978 0.00000000000000 0.50000000000000 0
0.23033707865169 0.00000000000000 0.50000000000000 0
0.22471910112360 0.00000000000000 0.50000000000000 0
0.21910112359551 0.00000000000000 0.50000000000000 0
0.21348314606742 0.00000000000000 0.50000000000000 0
0.20786516853933 0.00000000000000 0.50000000000000 0
0.20224719101124 0.00000000000000 0.50000000000000 0
0.19662921348315 0.00000000000000 0.50000000000000 0
0.19101123595506 0.00000000000000 0.50000000000000 0
0.18539325842697 0.00000000000000 0.50000000000000 0
0.17977528089888 0.00000000000000 0.50000000000000 0
0.17415730337079 0.00000000000000 0.50000000000000 0
0.16853932584270 0.00000000000000 0.50000000000000 0
0.16292134831461 0.00000000000000 0.50000000000000 0
0.15730337078652 0.00000000000000 0.50000000000000 0
0.15168539325843 0.00000000000000 0.50000000000000 0
0.14606741573034 0.00000000000000 0.50000000000000 0
0.14044943820225 0.00000000000000 0.50000000000000 0
0.13483146067416 0.00000000000000 0.50000000000000 0
0.12921348314607 0.00000000000000 0.50000000000000 0
0.12359550561798 0.00000000000000 0.50000000000000 0
0.11797752808989 0.00000000000000 0.50000000000000 0
0.11235955056180 0.00000000000000 0.50000000000000 0
0.10674157303371 0.00000000000000 0.50000000000000 0
0.10112359550562 0.00000000000000 0.50000000000000 0
0.09550561797753 0.00000000000000 0.50000000000000 0
0.08988764044944 0.00000000000000 0.50000000000000 0
0.08426966292135 0.00000000000000 0.50000000000000 0
0.07865168539326 0.00000000000000 0.50000000000000 0
0.07303370786517 0.00000000000000 0.50000000000000 0
0.06741573033708 0.00000000000000 0.50000000000000 0
0.06179775280899 0.00000000000000 0.50000000000000 0
0.05617977528090 0.00000000000000 0.50000000000000 0
0.05056179775281 0.00000000000000 0.50000000000000 0
0.04494382022472 0.00000000000000 0.50000000000000 0
0.03932584269663 0.00000000000000 0.50000000000000 0
0.03370786516854 0.00000000000000 0.50000000000000 0
0.02808988764045 0.00000000000000 0.50000000000000 0
0.02247191011236 0.00000000000000 0.50000000000000 0
0.01685393258427 0.00000000000000 0.50000000000000 0
0.01123595505618 0.00000000000000 0.50000000000000 0
0.00561797752809 0.00000000000000 0.50000000000000 0
0.00000000000000 0.00000000000000 0.50000000000000 0

ATOMIC_POSITIONS angstrom
C 0.0000000000 0.0000000000 0.0000000000 
C 0.0000000000 1.4130889825 0.0000000000 
C 0.0000000000 1.4130889825 3.3253959635 
C 1.2237709567 0.7065444913 3.3253959635 

